*SPEF "IEEE 1481-1998"
*DESIGN "dut"
*DATE "Wed Sep  2 15:58:11 2026"
*VENDOR "Cadence Design Systems, Inc."
*PROGRAM "Innovus"
*VERSION "21.15-s110_1"
*DESIGN_FLOW "COUPLING C" "PIN_CAP NONE" "NAME_SCOPE LOCAL"
*DIVIDER /
*DELIMITER :
*BUS_DELIMITER []
*T_UNIT 1 NS
*C_UNIT 1 PF
*R_UNIT 1 OHM
*L_UNIT 1 HENRY

// MMMC spef file for corner 'rc'

*NAME_MAP

*1 FE_OFN333_n_58
*2 FE_OFN332_n_49
*3 FE_OFN331_n_42
*4 FE_OFN330_n_44
*5 FE_OFN329_n_34
*6 FE_OFN328_n_45
*7 FE_OFN327_n_43
*8 FE_OFN326_n_52
*9 FE_OFN325_n_61
*10 FE_OFN324_n_55
*11 FE_OFN323_n_62
*12 FE_OFN322_n_33
*13 FE_OFN321_n_30
*14 FE_OFN320_n_11
*15 FE_OFN319_n_29
*16 FE_OFN318_n_37
*17 FE_OFN317_n_36
*18 FE_OFN316_n_35
*19 FE_OFN315_n_54
*20 FE_OFN314_n_56
*21 FE_OFN313_n_68
*22 FE_OFN312_n_51
*23 FE_OFN311_n_7
*24 FE_OFN310_n_7
*25 FE_OFN309_n_7
*26 FE_OFN308_n_7
*27 FE_OFN307_n_61
*28 FE_OFN306_n_61
*29 FE_OFN305_n_61
*30 FE_OFN304_n_61
*31 FE_OFN303_n_62
*32 FE_OFN302_n_62
*33 FE_OFN301_n_62
*34 FE_OFN300_n_62
*35 FE_OFN299_n_58
*36 FE_OFN298_n_58
*37 FE_OFN297_n_58
*38 FE_OFN296_n_58
*39 FE_OFN295_n_51
*40 FE_OFN294_n_51
*41 FE_OFN293_n_51
*42 FE_OFN292_n_51
*43 FE_OFN291_n_60
*44 FE_OFN290_n_60
*45 FE_OFN289_n_60
*46 FE_OFN288_n_60
*47 FE_OFN287_n_60
*48 FE_OFN286_n_60
*49 FE_OFN285_n_64
*50 FE_OFN284_n_64
*51 FE_OFN283_n_64
*52 FE_OFN282_n_64
*53 FE_OFN281_n_64
*54 FE_OFN280_n_64
*55 FE_OFN279_n_69
*56 FE_OFN278_n_69
*57 FE_OFN277_n_69
*58 FE_OFN276_n_69
*59 FE_OFN275_n_69
*60 FE_OFN274_n_69
*61 FE_OFN273_n_52
*62 FE_OFN272_n_52
*63 FE_OFN271_n_52
*64 FE_OFN270_n_52
*65 FE_OFN269_n_52
*66 FE_OFN268_n_52
*67 FE_OFN267_n_49
*68 FE_OFN266_n_49
*69 FE_OFN265_n_46
*70 FE_OFN264_n_46
*71 FE_OFN263_n_42
*72 FE_OFN262_n_42
*73 FE_OFN261_n_44
*74 FE_OFN260_n_44
*75 FE_OFN259_n_53
*76 FE_OFN258_n_53
*77 FE_OFN257_n_53
*78 FE_OFN256_n_53
*79 FE_OFN255_n_36
*80 FE_OFN254_n_36
*81 FE_OFN253_n_36
*82 FE_OFN252_n_36
*83 FE_OFN251_n_37
*84 FE_OFN250_n_37
*85 FE_OFN249_n_37
*86 FE_OFN248_n_37
*87 FE_OFN247_n_39
*88 FE_OFN246_n_39
*89 FE_OFN245_n_39
*90 FE_OFN244_n_39
*91 FE_OFN243_n_34
*92 FE_OFN242_n_34
*93 FE_OFN241_n_34
*94 FE_OFN240_n_34
*95 FE_OFN239_n_35
*96 FE_OFN238_n_35
*97 FE_OFN237_n_35
*98 FE_OFN236_n_35
*99 FE_OFN235_n_32
*100 FE_OFN234_n_32
*101 FE_OFN233_n_32
*102 FE_OFN232_n_32
*103 FE_OFN231_n_54
*104 FE_OFN230_n_54
*105 FE_OFN229_n_54
*106 FE_OFN228_n_54
*107 FE_OFN227_n_56
*108 FE_OFN226_n_56
*109 FE_OFN225_n_56
*110 FE_OFN224_n_56
*111 FE_OFN223_n_68
*112 FE_OFN222_n_68
*113 FE_OFN221_n_68
*114 FE_OFN220_n_68
*115 FE_OFN219_n_43
*116 FE_OFN218_n_43
*117 FE_OFN217_n_43
*118 FE_OFN216_n_43
*119 FE_OFN215_n_55
*120 FE_OFN214_n_55
*121 FE_OFN213_n_55
*122 FE_OFN212_n_55
*123 FE_OFN211_n_66
*124 FE_OFN210_n_66
*125 FE_OFN209_n_66
*126 FE_OFN208_n_66
*127 FE_OFN207_n_66
*128 FE_OFN206_n_66
*129 FE_OFN205_n_45
*130 FE_OFN204_n_45
*131 FE_OFN203_n_45
*132 FE_OFN202_n_45
*133 FE_OFN201_n_45
*134 FE_OFN200_n_45
*135 FE_OFN199_n_41
*136 FE_OFN198_n_41
*137 FE_OFN197_n_41
*138 FE_OFN196_n_41
*139 FE_OFN195_n_41
*140 FE_OFN194_n_41
*141 FE_OFN193_n_50
*142 FE_OFN192_n_50
*143 FE_OFN191_n_50
*144 FE_OFN190_n_50
*145 FE_OFN189_n_50
*146 FE_OFN188_n_50
*147 FE_OFN187_n_63
*148 FE_OFN186_n_63
*149 FE_OFN185_n_63
*150 FE_OFN184_n_63
*151 FE_OFN183_n_63
*152 FE_OFN182_n_30
*153 FE_OFN181_n_30
*154 FE_OFN180_n_33
*155 FE_OFN179_n_33
*156 FE_OFN178_n_24
*157 FE_OFN177_n_24
*158 FE_OFN176_n_24
*159 FE_OFN175_n_24
*160 FE_OFN174_n_24
*161 FE_OFN173_n_24
*162 FE_OFN172_n_29
*163 FE_OFN171_n_29
*164 FE_OFN170_n_29
*165 FE_OFN169_n_29
*166 FE_OFN168_n_40
*167 FE_OFN167_n_40
*168 FE_OFN166_n_40
*169 FE_OFN165_n_40
*170 FE_OFN164_n_40
*171 FE_OFN163_n_40
*172 FE_OFN162_n_57
*173 FE_OFN161_n_57
*174 FE_OFN160_n_57
*175 FE_OFN159_n_57
*176 FE_OFN158_n_57
*177 FE_OFN157_n_57
*178 FE_OFN156_n_57
*179 FE_OFN155_n_57
*180 FE_OFN154_n_57
*181 FE_OFN153_n_57
*182 FE_OFN152_n_57
*183 FE_OFN151_n_48
*184 FE_OFN150_n_48
*185 FE_OFN149_n_48
*186 FE_OFN148_n_48
*187 FE_OFN147_n_48
*188 FE_OFN146_n_48
*189 FE_OFN145_n_48
*190 FE_OFN144_n_48
*191 FE_OFN143_n_48
*192 FE_OFN142_n_48
*193 FE_OFN141_n_48
*194 FE_OFN140_n_47
*195 FE_OFN139_n_47
*196 FE_OFN138_n_47
*197 FE_OFN137_n_47
*198 FE_OFN136_n_47
*199 FE_OFN135_n_47
*200 FE_OFN134_n_47
*201 FE_OFN133_n_47
*202 FE_OFN132_n_47
*203 FE_OFN131_n_47
*204 FE_OFN130_n_47
*205 FE_OFN129_n_47
*206 FE_OFN128_n_47
*207 FE_OFN127_n_67
*208 FE_OFN126_n_67
*209 FE_OFN125_n_67
*210 FE_OFN124_n_67
*211 FE_OFN123_n_67
*212 FE_OFN122_n_67
*213 FE_OFN121_n_67
*214 FE_OFN120_n_67
*215 FE_OFN119_n_13
*216 FE_OFN118_n_13
*217 FE_OFN117_n_13
*218 FE_OFN116_n_13
*219 FE_OFN115_n_23
*220 FE_OFN114_n_23
*221 FE_OFN113_n_23
*222 FE_OFN112_n_23
*223 FE_OFN111_n_23
*224 FE_OFN110_n_23
*225 FE_OFN109_n_26
*226 FE_OFN108_n_26
*227 FE_OFN107_n_26
*228 FE_OFN106_n_26
*229 FE_OFN105_n_65
*230 FE_OFN104_n_65
*231 FE_OFN103_n_65
*232 FE_OFN102_n_65
*233 FE_OFN101_n_65
*234 FE_OFN100_n_65
*235 FE_OFN99_n_65
*236 FE_OFN98_n_65
*237 FE_OFN97_n_65
*238 FE_OFN96_n_65
*239 FE_OFN95_n_65
*240 FE_OFN94_n_38
*241 FE_OFN93_n_38
*242 FE_OFN92_n_38
*243 FE_OFN91_n_38
*244 FE_OFN90_n_38
*245 FE_OFN89_n_38
*246 FE_OFN88_n_38
*247 FE_OFN87_n_38
*248 FE_OFN86_n_38
*249 FE_OFN85_n_38
*250 FE_OFN84_n_38
*251 FE_OFN83_n_38
*252 FE_OFN82_n_38
*253 FE_OFN81_n_16
*254 FE_OFN80_n_16
*255 FE_OFN79_n_16
*256 FE_OFN78_n_16
*257 FE_OFN77_n_12
*258 FE_OFN76_n_12
*259 FE_OFN75_n_12
*260 FE_OFN74_n_11
*261 FE_OFN73_n_11
*262 FE_OFN72_n_11
*263 FE_OFN71_n_11
*264 FE_OFN70_n_11
*265 FE_OFN69_n_11
*266 FE_OFN68_n_21
*267 FE_OFN67_n_21
*268 FE_OFN66_n_21
*269 FE_OFN65_n_21
*270 FE_OFN64_n_21
*271 FE_OFN63_n_21
*272 FE_OFN62_n_18
*273 FE_OFN61_n_18
*274 FE_OFN60_n_18
*275 FE_OFN59_n_18
*276 FE_OFN58_n_18
*277 FE_OFN57_n_59
*278 FE_OFN56_n_59
*279 FE_OFN55_n_59
*280 FE_OFN54_n_59
*281 FE_OFN53_n_59
*282 FE_OFN52_n_59
*283 FE_OFN51_n_59
*284 FE_OFN50_n_59
*285 FE_OFN49_n_59
*286 FE_OFN48_n_59
*287 FE_OFN47_n_2
*288 FE_OFN46_n_6
*289 FE_OFN45_n_6
*290 FE_OFN44_n_3
*291 FE_OFN43_n_3
*292 FE_OFN42_n_1
*293 FE_OFN41_n_1
*294 FE_OFN40_n_1
*295 FE_OFN39_n_1
*296 FE_OFN38_n_1
*297 FE_OFN37_n_4
*298 FE_OFN36_n_4
*299 FE_OFN35_n_4
*300 FE_OFN34_n_4
*301 FE_OFN33_n_4
*302 FE_OFN32_n_4
*303 FE_OFN31_n_4
*304 FE_OFN30_n_14
*305 FE_OFN29_n_14
*306 FE_OFN28_n_14
*307 FE_OFN27_n_14
*308 FE_OFN26_n_14
*309 FE_OFN25_n_14
*310 FE_OFN24_n_14
*311 FE_OFN23_scan_count_1
*312 FE_OFN22_scan_count_1
*313 FE_OFN21_scan_count_1
*314 FE_OFN19_scan_count_0
*315 FE_OFN18_scan_count_0
*316 FE_OFN17_scan_count_2
*317 FE_OFN16_scan_count_2
*318 FE_OFN15_scan_count_2
*319 FE_OFN14_scan_count_2
*320 FE_OFN13_scan_count_2
*321 FE_OFN12_scan_count_2
*322 FE_OFN11_pwm_count_3
*323 FE_OFN10_pwm_count_3
*324 FE_OFN9_pwm_count_3
*325 FE_OFN8_pwm_count_3
*326 FE_OFN7_pwm_count_3
*327 FE_OFN6_pwm_count_3
*328 FE_OFN5_pwm_count_3
*329 FE_OFN4_pwm_count_3
*330 FE_OFN3_pwm_count_3
*331 FE_OFN2_pwm_count_3
*332 FE_OFN1_pwm_count_3
*333 FE_OFN0_pwm_count_3
*334 clk
*335 rst
*336 display_data[63]
*337 display_data[62]
*338 display_data[61]
*339 display_data[60]
*340 display_data[59]
*341 display_data[58]
*342 display_data[57]
*343 display_data[56]
*344 display_data[55]
*345 display_data[54]
*346 display_data[53]
*347 display_data[52]
*348 display_data[51]
*349 display_data[50]
*350 display_data[49]
*351 display_data[48]
*352 display_data[47]
*353 display_data[46]
*354 display_data[45]
*355 display_data[44]
*356 display_data[43]
*357 display_data[42]
*358 display_data[41]
*359 display_data[40]
*360 display_data[39]
*361 display_data[38]
*362 display_data[37]
*363 display_data[36]
*364 display_data[35]
*365 display_data[34]
*366 display_data[33]
*367 display_data[32]
*368 display_data[31]
*369 display_data[30]
*370 display_data[29]
*371 display_data[28]
*372 display_data[27]
*373 display_data[26]
*374 display_data[25]
*375 display_data[24]
*376 display_data[23]
*377 display_data[22]
*378 display_data[21]
*379 display_data[20]
*380 display_data[19]
*381 display_data[18]
*382 display_data[17]
*383 display_data[16]
*384 display_data[15]
*385 display_data[14]
*386 display_data[13]
*387 display_data[12]
*388 display_data[11]
*389 display_data[10]
*390 display_data[9]
*391 display_data[8]
*392 display_data[7]
*393 display_data[6]
*394 display_data[5]
*395 display_data[4]
*396 display_data[3]
*397 display_data[2]
*398 display_data[1]
*399 display_data[0]
*400 brightness[3]
*401 brightness[2]
*402 brightness[1]
*403 brightness[0]
*404 row[7]
*405 row[6]
*406 row[5]
*407 row[4]
*408 row[3]
*409 row[2]
*410 row[1]
*411 row[0]
*412 col[7]
*413 col[6]
*414 col[5]
*415 col[4]
*416 col[3]
*417 col[2]
*418 col[1]
*419 col[0]
*420 pwm_count[3]
*421 scan_count[2]
*422 scan_count[1]
*423 scan_count[0]
*424 n_0
*425 n_1
*426 n_2
*427 n_3
*428 n_4
*429 n_5
*430 n_6
*431 n_7
*432 n_9
*433 n_10
*434 n_11
*435 n_12
*436 n_13
*437 n_14
*438 n_16
*439 n_18
*440 n_19
*441 n_21
*442 n_23
*443 n_24
*444 n_25
*445 n_26
*446 n_29
*447 n_30
*448 n_32
*449 n_33
*450 n_34
*451 n_35
*452 n_36
*453 n_37
*454 n_38
*455 n_39
*456 n_40
*457 n_41
*458 n_42
*459 n_43
*460 n_44
*461 n_45
*462 n_46
*463 n_47
*464 n_48
*465 n_49
*466 n_50
*467 n_51
*468 n_52
*469 n_53
*470 n_54
*471 n_55
*472 n_56
*473 n_57
*474 n_58
*475 n_59
*476 n_60
*477 n_61
*478 n_62
*479 n_63
*480 n_64
*481 n_65
*482 n_66
*483 n_67
*484 n_68
*485 n_69
*486 clk_int
*487 rst_int
*488 display_data_int[0]
*489 display_data_int[1]
*490 display_data_int[2]
*491 display_data_int[3]
*492 display_data_int[4]
*493 display_data_int[5]
*494 display_data_int[6]
*495 display_data_int[7]
*496 display_data_int[8]
*497 display_data_int[9]
*498 display_data_int[10]
*499 display_data_int[11]
*500 display_data_int[12]
*501 display_data_int[13]
*502 display_data_int[14]
*503 display_data_int[15]
*504 display_data_int[16]
*505 display_data_int[17]
*506 display_data_int[18]
*507 display_data_int[19]
*508 display_data_int[20]
*509 display_data_int[21]
*510 display_data_int[22]
*511 display_data_int[23]
*512 display_data_int[24]
*513 display_data_int[25]
*514 display_data_int[26]
*515 display_data_int[27]
*516 display_data_int[28]
*517 display_data_int[29]
*518 display_data_int[30]
*519 display_data_int[31]
*520 display_data_int[32]
*521 display_data_int[33]
*522 display_data_int[34]
*523 display_data_int[35]
*524 display_data_int[36]
*525 display_data_int[37]
*526 display_data_int[38]
*527 display_data_int[39]
*528 display_data_int[40]
*529 display_data_int[41]
*530 display_data_int[42]
*531 display_data_int[43]
*532 display_data_int[44]
*533 display_data_int[45]
*534 display_data_int[46]
*535 display_data_int[47]
*536 display_data_int[48]
*537 display_data_int[49]
*538 display_data_int[50]
*539 display_data_int[51]
*540 display_data_int[52]
*541 display_data_int[53]
*542 display_data_int[54]
*543 display_data_int[55]
*544 display_data_int[56]
*545 display_data_int[57]
*546 display_data_int[58]
*547 display_data_int[59]
*548 display_data_int[60]
*549 display_data_int[61]
*550 display_data_int[62]
*551 display_data_int[63]
*552 brightness_int[0]
*553 brightness_int[1]
*554 brightness_int[2]
*555 brightness_int[3]
*556 FE_OFC333_n_58
*557 FE_OFC332_n_49
*558 FE_OFC331_n_42
*559 FE_OFC330_n_44
*560 FE_OFC329_n_34
*561 FE_OFC328_n_45
*562 FE_OFC327_n_43
*563 FE_OFC326_n_52
*564 FE_OFC325_n_61
*565 FE_OFC324_n_55
*566 FE_OFC323_n_62
*567 FE_OFC322_n_33
*568 FE_OFC321_n_30
*569 FE_OFC320_n_11
*570 FE_OFC319_n_29
*571 FE_OFC318_n_37
*572 FE_OFC317_n_36
*573 FE_OFC316_n_35
*574 FE_OFC315_n_54
*575 FE_OFC314_n_56
*576 FE_OFC313_n_68
*577 FE_OFC312_n_51
*578 FE_OFC311_n_7
*579 FE_OFC310_n_7
*580 FE_OFC309_n_7
*581 FE_OFC308_n_7
*582 FE_OFC307_n_61
*583 FE_OFC306_n_61
*584 FE_OFC305_n_61
*585 FE_OFC304_n_61
*586 FE_OFC303_n_62
*587 FE_OFC302_n_62
*588 FE_OFC301_n_62
*589 FE_OFC300_n_62
*590 FE_OFC299_n_58
*591 FE_OFC298_n_58
*592 FE_OFC297_n_58
*593 FE_OFC296_n_58
*594 FE_OFC295_n_51
*595 FE_OFC294_n_51
*596 FE_OFC293_n_51
*597 FE_OFC292_n_51
*598 FE_OFC291_n_60
*599 FE_OFC290_n_60
*600 FE_OFC289_n_60
*601 FE_OFC288_n_60
*602 FE_OFC287_n_60
*603 FE_OFC286_n_60
*604 FE_OFC285_n_64
*605 FE_OFC284_n_64
*606 FE_OFC283_n_64
*607 FE_OFC282_n_64
*608 FE_OFC281_n_64
*609 FE_OFC280_n_64
*610 FE_OFC279_n_69
*611 FE_OFC278_n_69
*612 FE_OFC277_n_69
*613 FE_OFC276_n_69
*614 FE_OFC275_n_69
*615 FE_OFC274_n_69
*616 FE_OFC273_n_52
*617 FE_OFC272_n_52
*618 FE_OFC271_n_52
*619 FE_OFC270_n_52
*620 FE_OFC269_n_52
*621 FE_OFC268_n_52
*622 FE_OFC267_n_49
*623 FE_OFC266_n_49
*624 FE_OFC265_n_46
*625 FE_OFC264_n_46
*626 FE_OFC263_n_42
*627 FE_OFC262_n_42
*628 FE_OFC261_n_44
*629 FE_OFC260_n_44
*630 FE_OFC259_n_53
*631 FE_OFC258_n_53
*632 FE_OFC257_n_53
*633 FE_OFC256_n_53
*634 FE_OFC255_n_36
*635 FE_OFC254_n_36
*636 FE_OFC253_n_36
*637 FE_OFC252_n_36
*638 FE_OFC251_n_37
*639 FE_OFC250_n_37
*640 FE_OFC249_n_37
*641 FE_OFC248_n_37
*642 FE_OFC247_n_39
*643 FE_OFC246_n_39
*644 FE_OFC245_n_39
*645 FE_OFC244_n_39
*646 FE_OFC243_n_34
*647 FE_OFC242_n_34
*648 FE_OFC241_n_34
*649 FE_OFC240_n_34
*650 FE_OFC239_n_35
*651 FE_OFC238_n_35
*652 FE_OFC237_n_35
*653 FE_OFC236_n_35
*654 FE_OFC235_n_32
*655 FE_OFC234_n_32
*656 FE_OFC233_n_32
*657 FE_OFC232_n_32
*658 FE_OFC231_n_54
*659 FE_OFC230_n_54
*660 FE_OFC229_n_54
*661 FE_OFC228_n_54
*662 FE_OFC227_n_56
*663 FE_OFC226_n_56
*664 FE_OFC225_n_56
*665 FE_OFC224_n_56
*666 FE_OFC223_n_68
*667 FE_OFC222_n_68
*668 FE_OFC221_n_68
*669 FE_OFC220_n_68
*670 FE_OFC219_n_43
*671 FE_OFC218_n_43
*672 FE_OFC217_n_43
*673 FE_OFC216_n_43
*674 FE_OFC215_n_55
*675 FE_OFC214_n_55
*676 FE_OFC213_n_55
*677 FE_OFC212_n_55
*678 FE_OFC211_n_66
*679 FE_OFC210_n_66
*680 FE_OFC209_n_66
*681 FE_OFC208_n_66
*682 FE_OFC207_n_66
*683 FE_OFC206_n_66
*684 FE_OFC205_n_45
*685 FE_OFC204_n_45
*686 FE_OFC203_n_45
*687 FE_OFC202_n_45
*688 FE_OFC201_n_45
*689 FE_OFC200_n_45
*690 FE_OFC199_n_41
*691 FE_OFC198_n_41
*692 FE_OFC197_n_41
*693 FE_OFC196_n_41
*694 FE_OFC195_n_41
*695 FE_OFC194_n_41
*696 FE_OFC193_n_50
*697 FE_OFC192_n_50
*698 FE_OFC191_n_50
*699 FE_OFC190_n_50
*700 FE_OFC189_n_50
*701 FE_OFC188_n_50
*702 FE_OFC187_n_63
*703 FE_OFC186_n_63
*704 FE_OFC185_n_63
*705 FE_OFC184_n_63
*706 FE_OFC183_n_63
*707 FE_OFC182_n_30
*708 FE_OFC181_n_30
*709 FE_OFC180_n_33
*710 FE_OFC179_n_33
*711 FE_OFC178_n_24
*712 FE_OFC177_n_24
*713 FE_OFC176_n_24
*714 FE_OFC175_n_24
*715 FE_OFC174_n_24
*716 FE_OFC173_n_24
*717 FE_OFC172_n_29
*718 FE_OFC171_n_29
*719 FE_OFC170_n_29
*720 FE_OFC169_n_29
*721 FE_OFC168_n_40
*722 FE_OFC167_n_40
*723 FE_OFC166_n_40
*724 FE_OFC165_n_40
*725 FE_OFC164_n_40
*726 FE_OFC163_n_40
*727 FE_OFC162_n_57
*728 FE_OFC161_n_57
*729 FE_OFC160_n_57
*730 FE_OFC159_n_57
*731 FE_OFC158_n_57
*732 FE_OFC157_n_57
*733 FE_OFC156_n_57
*734 FE_OFC155_n_57
*735 FE_OFC154_n_57
*736 FE_OFC153_n_57
*737 FE_OFC152_n_57
*738 FE_OFC151_n_48
*739 FE_OFC150_n_48
*740 FE_OFC149_n_48
*741 FE_OFC148_n_48
*742 FE_OFC147_n_48
*743 FE_OFC146_n_48
*744 FE_OFC145_n_48
*745 FE_OFC144_n_48
*746 FE_OFC143_n_48
*747 FE_OFC142_n_48
*748 FE_OFC141_n_48
*749 FE_OFC140_n_47
*750 FE_OFC139_n_47
*751 FE_OFC138_n_47
*752 FE_OFC137_n_47
*753 FE_OFC136_n_47
*754 FE_OFC135_n_47
*755 FE_OFC134_n_47
*756 FE_OFC133_n_47
*757 FE_OFC132_n_47
*758 FE_OFC131_n_47
*759 FE_OFC130_n_47
*760 FE_OFC129_n_47
*761 FE_OFC128_n_47
*762 FE_OFC127_n_67
*763 FE_OFC126_n_67
*764 FE_OFC125_n_67
*765 FE_OFC124_n_67
*766 FE_OFC123_n_67
*767 FE_OFC122_n_67
*768 FE_OFC121_n_67
*769 FE_OFC120_n_67
*770 FE_OFC119_n_13
*771 FE_OFC118_n_13
*772 FE_OFC117_n_13
*773 FE_OFC116_n_13
*774 FE_OFC115_n_23
*775 FE_OFC114_n_23
*776 FE_OFC113_n_23
*777 FE_OFC112_n_23
*778 FE_OFC111_n_23
*779 FE_OFC110_n_23
*780 FE_OFC109_n_26
*781 FE_OFC108_n_26
*782 FE_OFC107_n_26
*783 FE_OFC106_n_26
*784 FE_OFC105_n_65
*785 FE_OFC104_n_65
*786 FE_OFC103_n_65
*787 FE_OFC102_n_65
*788 FE_OFC101_n_65
*789 FE_OFC100_n_65
*790 FE_OFC99_n_65
*791 FE_OFC98_n_65
*792 FE_OFC97_n_65
*793 FE_OFC96_n_65
*794 FE_OFC95_n_65
*795 FE_OFC94_n_38
*796 FE_OFC93_n_38
*797 FE_OFC92_n_38
*798 FE_OFC91_n_38
*799 FE_OFC90_n_38
*800 FE_OFC89_n_38
*801 FE_OFC88_n_38
*802 FE_OFC87_n_38
*803 FE_OFC86_n_38
*804 FE_OFC85_n_38
*805 FE_OFC84_n_38
*806 FE_OFC83_n_38
*807 FE_OFC82_n_38
*808 FE_OFC81_n_16
*809 FE_OFC80_n_16
*810 FE_OFC79_n_16
*811 FE_OFC78_n_16
*812 FE_OFC77_n_12
*813 FE_OFC76_n_12
*814 FE_OFC75_n_12
*815 FE_OFC74_n_11
*816 FE_OFC73_n_11
*817 FE_OFC72_n_11
*818 FE_OFC71_n_11
*819 FE_OFC70_n_11
*820 FE_OFC69_n_11
*821 FE_OFC68_n_21
*822 FE_OFC67_n_21
*823 FE_OFC66_n_21
*824 FE_OFC65_n_21
*825 FE_OFC64_n_21
*826 FE_OFC63_n_21
*827 FE_OFC62_n_18
*828 FE_OFC61_n_18
*829 FE_OFC60_n_18
*830 FE_OFC59_n_18
*831 FE_OFC58_n_18
*832 FE_OFC57_n_59
*833 FE_OFC56_n_59
*834 FE_OFC55_n_59
*835 FE_OFC54_n_59
*836 FE_OFC53_n_59
*837 FE_OFC52_n_59
*838 FE_OFC51_n_59
*839 FE_OFC50_n_59
*840 FE_OFC49_n_59
*841 FE_OFC48_n_59
*842 FE_OFC47_n_2
*843 FE_OFC46_n_6
*844 FE_OFC45_n_6
*845 FE_OFC44_n_3
*846 FE_OFC43_n_3
*847 FE_OFC42_n_1
*848 FE_OFC41_n_1
*849 FE_OFC40_n_1
*850 FE_OFC39_n_1
*851 FE_OFC38_n_1
*852 FE_OFC37_n_4
*853 FE_OFC36_n_4
*854 FE_OFC35_n_4
*855 FE_OFC34_n_4
*856 FE_OFC33_n_4
*857 FE_OFC32_n_4
*858 FE_OFC31_n_4
*859 FE_OFC30_n_14
*860 FE_OFC29_n_14
*861 FE_OFC28_n_14
*862 FE_OFC27_n_14
*863 FE_OFC26_n_14
*864 FE_OFC25_n_14
*865 FE_OFC24_n_14
*866 FE_OFC23_scan_count_1
*867 FE_OFC22_scan_count_1
*868 FE_OFC21_scan_count_1
*869 FE_OFC19_scan_count_0
*870 FE_OFC18_scan_count_0
*871 FE_OFC17_scan_count_2
*872 FE_OFC16_scan_count_2
*873 FE_OFC15_scan_count_2
*874 FE_OFC14_scan_count_2
*875 FE_OFC13_scan_count_2
*876 FE_OFC12_scan_count_2
*877 FE_OFC11_pwm_count_3
*878 FE_OFC10_pwm_count_3
*879 FE_OFC9_pwm_count_3
*880 FE_OFC8_pwm_count_3
*881 FE_OFC7_pwm_count_3
*882 FE_OFC6_pwm_count_3
*883 FE_OFC5_pwm_count_3
*884 FE_OFC4_pwm_count_3
*885 FE_OFC3_pwm_count_3
*886 FE_OFC2_pwm_count_3
*887 FE_OFC1_pwm_count_3
*888 FE_OFC0_pwm_count_3
*889 g2362__2398
*890 g2360__5107
*891 g2361__6260
*892 g2363__4319
*893 g2364__8428
*894 g2365__5526
*895 g2359__6783
*896 g2366__3680
*897 g2387__1617
*898 g2368__2802
*899 g2375__1705
*900 g2369__5122
*901 g2385__8246
*902 g2377__7098
*903 g2367__6131
*904 g2382__1881
*905 g2378__5115
*906 g2370__7482
*907 g2379__4733
*908 g2381__6161
*909 g2374__9315
*910 g2388__9945
*911 g2384__2883
*912 g2371__2346
*913 g2383__1666
*914 g2376__7410
*915 g2373__6417
*916 g2372__5477
*917 g2386__2398
*918 g2380__5107
*919 g2392__6260
*920 g2391__4319
*921 g2390__8428
*922 g2393__5526
*923 g2397__6783
*924 g2396__3680
*925 g2395__1617
*926 g2398__2802
*927 g2401__1705
*928 g2402__5122
*929 g2389__8246
*930 g2394__7098
*931 pwm_count_reg\[3\]
*932 g2403__6131
*933 pwm_count_reg\[2\]
*934 g2406__1881
*935 g2407__5115
*936 g2408__7482
*937 g2409__4733
*938 g2410__6161
*939 g2404__9315
*940 g2411__9945
*941 g2405__2883
*942 g2413__2346
*943 g2414__1666
*944 scan_count_reg\[1\]
*945 g2415__7410
*946 g2416__6417
*947 g2419__5477
*948 g2417__2398
*949 g2420__5107
*950 g2418__6260
*951 g2421
*952 g2423__4319
*953 g2422__8428
*954 g2427__5526
*955 g2425__6783
*956 g2424__3680
*957 g2428__1617
*958 g2429__2802
*959 g2430__1705
*960 g2431__5122
*961 g2432__8246
*962 scan_count_reg\[0\]
*963 g2433__7098
*964 g2434__6131
*965 g2439__1881
*966 g2438__5115
*967 g2437__7482
*968 g2435__4733
*969 g2436__6161
*970 g2440
*971 c
*972 r
*973 dd0
*974 dd1
*975 dd2
*976 dd3
*977 dd4
*978 dd5
*979 dd6
*980 dd7
*981 dd8
*982 dd9
*983 dd10
*984 dd11
*985 dd12
*986 dd13
*987 dd14
*988 dd15
*989 dd16
*990 dd17
*991 dd18
*992 dd19
*993 dd20
*994 dd21
*995 dd22
*996 dd23
*997 dd24
*998 dd25
*999 dd26
*1000 dd27
*1001 dd28
*1002 dd29
*1003 dd30
*1004 dd31
*1005 dd32
*1006 dd33
*1007 dd34
*1008 dd35
*1009 dd36
*1010 dd37
*1011 dd38
*1012 dd39
*1013 dd40
*1014 dd41
*1015 dd42
*1016 dd43
*1017 dd44
*1018 dd45
*1019 dd46
*1020 dd47
*1021 dd48
*1022 dd49
*1023 dd50
*1024 dd51
*1025 dd52
*1026 dd53
*1027 dd54
*1028 dd55
*1029 dd56
*1030 dd57
*1031 dd58
*1032 dd59
*1033 dd60
*1034 dd61
*1035 dd62
*1036 dd63
*1037 b0
*1038 b1
*1039 b2
*1040 b3
*1041 row0
*1042 row1
*1043 row2
*1044 row3
*1045 row4
*1046 row5
*1047 row6
*1048 row7
*1049 col0
*1050 col1
*1051 col2
*1052 col3
*1053 col4
*1054 col5
*1055 col6
*1056 col7


*PORTS

*334 I *C 272 1949.29
*335 I *C 334 1949.29
*336 I *C 1140 80.71
*337 I *C 1078 80.71
*338 I *C 1016 80.71
*339 I *C 954 80.71
*340 I *C 892 80.71
*341 I *C 830 80.71
*342 I *C 768 80.71
*343 I *C 706 80.71
*344 I *C 644 80.71
*345 I *C 582 80.71
*346 I *C 520 80.71
*347 I *C 458 80.71
*348 I *C 396 80.71
*349 I *C 334 80.71
*350 I *C 272 80.71
*351 I *C 1949.29 1574
*352 I *C 1949.29 1512
*353 I *C 1949.29 1450
*354 I *C 1949.29 1388
*355 I *C 1949.29 1326
*356 I *C 1949.29 1264
*357 I *C 1949.29 1202
*358 I *C 1949.29 1140
*359 I *C 1949.29 1078
*360 I *C 1949.29 1016
*361 I *C 1949.29 954
*362 I *C 1949.29 892
*363 I *C 1949.29 830
*364 I *C 1636 1949.29
*365 I *C 1574 1949.29
*366 I *C 1512 1949.29
*367 I *C 1450 1949.29
*368 I *C 1388 1949.29
*369 I *C 1326 1949.29
*370 I *C 1264 1949.29
*371 I *C 1202 1949.29
*372 I *C 1140 1949.29
*373 I *C 1078 1949.29
*374 I *C 1016 1949.29
*375 I *C 954 1949.29
*376 I *C 892 1949.29
*377 I *C 830 1949.29
*378 I *C 768 1949.29
*379 I *C 706 1949.29
*380 I *C 644 1949.29
*381 I *C 582 1949.29
*382 I *C 520 1949.29
*383 I *C 458 1949.29
*384 I *C 396 1949.29
*385 I *C 80.71 1636
*386 I *C 80.71 1574
*387 I *C 80.71 1512
*388 I *C 80.71 1450
*389 I *C 80.71 1388
*390 I *C 80.71 1326
*391 I *C 80.71 1264
*392 I *C 80.71 1202
*393 I *C 80.71 1140
*394 I *C 80.71 1078
*395 I *C 80.71 1016
*396 I *C 80.71 954
*397 I *C 80.71 892
*398 I *C 80.71 830
*399 I *C 80.71 768
*400 I *C 1388 80.71
*401 I *C 1326 80.71
*402 I *C 1264 80.71
*403 I *C 1202 80.71
*404 O *C 80.0075 706
*405 O *C 80.0075 644
*406 O *C 80.0075 582
*407 O *C 80.0075 520
*408 O *C 80.0075 458
*409 O *C 80.0075 396
*410 O *C 80.0075 334
*411 O *C 80.0075 272
*412 O *C 1949.99 706
*413 O *C 1949.99 644
*414 O *C 1949.99 582
*415 O *C 1949.99 520
*416 O *C 1949.99 458
*417 O *C 1949.99 396
*418 O *C 1949.99 334
*419 O *C 1949.99 272


*D_NET *1 0.000274551

*CONN
*I *593:A I *C 769.5 583.395 *L 0.0012 *D INVX3
*I *556:Y O *C 770.535 582.74 *L 0 *D BUFX2

*CAP
1 *593:A 1.137e-05
2 *556:Y 2.267e-05
3 *1:2 7.778e-05
4 *1:3 7.778e-05
5 *1:5 1.95296e-05
6 *1:6 2.80001e-05
7 *1:7 1.95296e-05
8 *1:8 1.78905e-05

*RES
1 *1:6 *593:A 0.599283
2 *1:7 *1:6 8.76079178
3 *1:5 *1:7 0.734032
4 *1:3 *1:5 8.76079178
5 *1:3 *1:2 4.4451
6 *1:8 *1:2 8.76079178
7 *1:8 *556:Y 8.76079178
8 *1:4 *1:8 1.02184
*END

*D_NET *2 0.00043976

*CONN
*I *623:A I *C 1779.9 952.755 *L 0.000801 *D INVX2
*I *557:Y O *C 1780.735 954.74 *L 0 *D BUFX2

*CAP
1 *623:A 1.13703e-05
2 *557:Y 2.05705e-05
3 *2:2 3.45596e-05
4 *2:3 3.45596e-05
5 *2:4 3.614e-05
6 *2:5 3.614e-05
7 *2:6 2.42196e-05
8 *2:7 6.65197705e-05
9 *2:8 2.82106e-05
10 *2:9 6.65197705e-05
11 *2:10 3.59796e-05
12 *2:11 4.49697e-05

*RES
1 *2:11 *557:Y 1.22691
2 *2:10 *2:11 2.29447
3 *2:8 *2:10 0.613453
4 *2:9 *2:8 8.76079178
5 *2:7 *2:9 3.21044
6 *2:4 *2:7 8.76079178
7 *2:5 *2:4 1.4158
8 *2:2 *2:5 8.76079178
9 *2:3 *2:2 1.60522
10 *2:6 *623:A 0.613453
11 *2:6 *2:3 8.76079178
*END

*D_NET *3 0.00170757

*CONN
*I *627:A I *C 1779.1 819.375 *L 0.000801 *D INVX2
*I *558:Y O *C 1781.335 831.62 *L 0 *D BUFX2

*CAP
1 *627:A 3.49079e-05
2 *558:Y 2.26663e-05
3 *3:2 0.000524507
4 *3:3 0.00052919
5 *3:4 5.87935e-05
6 *3:5 5.87935e-05
7 *3:6 3.03213e-05
8 *3:7 3.03213e-05
9 *3:8 4.77551e-05
10 *3:9 6.9299e-05
11 *3:10 2.25613e-05
12 *3:11 6.9299e-05
13 *3:12 3.52874e-05
14 *3:13 6.73206e-05
15 *3:14 6.92909e-05
16 *3:15 3.72577e-05

*RES
1 *3:4 *558:Y 8.76086
2 *3:5 *3:4 2.93251
3 *3:15 *3:5 8.76086
4 *3:14 *3:15 1.21679
5 *3:13 *3:14 2.43357
6 *3:12 *3:13 1.21679
7 *3:2 *3:12 8.76086
8 *3:3 *3:2 36.4124603
9 *3:10 *3:3 1.07344
10 *3:11 *3:10 8.76086
11 *3:9 *3:11 3.51034
12 *3:6 *3:9 8.76086
13 *3:7 *3:6 1.46625
14 *3:8 *627:A 1.83962
15 *3:8 *3:7 8.76086
*END

*D_NET *4 0.00159751

*CONN
*I *629:A I *C 1777.1 1004.055 *L 0.000801 *D INVX2
*I *559:Y O *C 1777.735 1019.72 *L 0 *D BUFX2

*CAP
1 *629:A 2.26669e-05
2 *559:Y 2.26669e-05
3 *4:2 0.000200218
4 *4:3 0.000204895
5 *4:4 0.000339152
6 *4:5 0.00035276
7 *4:6 0.000236718
8 *4:7 0.000218428

*RES
1 *4:7 *559:Y 8.76066
2 *4:6 *4:7 14.9107
3 *4:5 *4:6 2.14263
4 *4:4 *4:5 24.0567589
5 *4:3 *4:4 1.07113
6 *4:2 *4:3 13.3466
7 *629:A *4:2 8.76066
*END

*D_NET *5 0.00024086

*CONN
*I *649:A I *C 1780.5 1135.345 *L 0.000801 *D INVX2
*I *560:Y O *C 1780.735 1136.78 *L 0 *D BUFX2

*CAP
1 *649:A 2.26702e-05
2 *560:Y 2.26702e-05
3 *5:2 4.513e-05
4 *5:3 4.98104e-05
5 *5:4 5.263e-05
6 *5:5 4.79496e-05

*RES
1 *5:5 *560:Y 8.76079178
2 *5:4 *5:5 2.69096
3 *5:3 *5:4 1.07104
4 *5:2 *5:3 2.69096
5 *649:A *5:2 8.76079178
*END

*D_NET *6 0.000343638

*CONN
*I *689:A I *C 1571.1851 1383.525 *L 0.00161 *D INVX4
*I *561:Y O *C 1571.735 1385.66 *L 0 *D BUFX2

*CAP
1 *689:A 2.26699e-05
2 *561:Y 2.26699e-05
3 *6:2 3.02193e-05
4 *6:3 0.000102969
5 *6:4 0.00011893
6 *6:5 4.61801e-05

*RES
1 *6:5 *561:Y 8.76079178
2 *6:4 *6:5 2.69029
3 *6:3 *6:4 6.47809
4 *6:2 *6:3 1.68142
5 *689:A *6:2 8.76079178
*END

*D_NET *7 0.00022037

*CONN
*I *673:A I *C 1638.785 1448.505 *L 0.00161 *D INVX4
*I *562:Y O *C 1639.335 1448 *L 0 *D BUFX2

*CAP
1 *673:A 2.26698e-05
2 *562:Y 2.26698e-05
3 *7:2 6.805e-05
4 *7:3 6.805e-05
5 *7:6 1.05198e-05
6 *7:7 1.05198e-05
7 *7:8 1.78902e-05

*RES
1 *7:5 *7:8 1.02184
2 *7:8 *562:Y 8.76079178
3 *7:2 *7:8 8.76079178
4 *7:7 *673:A 8.76079178
5 *7:3 *7:2 4.26543
6 *7:6 *7:7 0.124455
7 *7:6 *7:3 8.76079178
8 *7:4 *7:6 0.838034
*END

*D_NET *8 0.00019584

*CONN
*I *621:A I *C 586.785 641.385 *L 0.00161 *D INVX4
*I *563:Y O *C 585.335 640.88 *L 0 *D BUFX2

*CAP
1 *621:A 2.267e-05
2 *563:Y 2.267e-05
3 *8:2 6.34e-05
4 *8:3 2.079e-05
5 *8:4 6.631e-05

*RES
1 *8:3 *621:A 8.76079178
2 *8:3 *8:4 1.09243
3 *8:2 *8:4 4.31877
4 *563:Y *8:2 8.76079178
*END

*D_NET *9 0.000197661

*CONN
*I *585:A I *C 1014.985 335.215 *L 0.00161 *D INVX4
*I *564:Y O *C 1013.535 335.72 *L 0 *D BUFX2

*CAP
1 *585:A 2.26703e-05
2 *564:Y 2.26703e-05
3 *9:2 6.34002e-05
4 *9:3 6.722e-05
5 *9:4 2.17e-05

*RES
1 *9:4 *585:A 8.76079178
2 *9:3 *9:4 1.00888
3 *9:2 *9:3 4.31877
4 *564:Y *9:2 8.76079178
*END

*D_NET *10 0.000275321

*CONN
*I *677:A I *C 1137.385 952.605 *L 0.00161 *D INVX4
*I *565:Y O *C 1138.135 952.1 *L 0 *D BUFX2

*CAP
1 *677:A 2.26701e-05
2 *565:Y 1.97801e-05
3 *10:2 6.464e-05
4 *10:3 1.91203e-05
5 *10:4 2.27599e-05
6 *10:5 6.34002e-05
7 *10:6 2.65405e-05
8 *10:7 3.64099e-05

*RES
1 *10:7 *565:Y 1.20284
2 *10:6 *10:7 1.52795
3 *10:4 *10:6 0.59915
4 *10:3 *677:A 8.76079178
5 *10:5 *10:4 8.76079178
6 *10:2 *10:3 0.799802
7 *10:2 *10:5 4.31877
*END

*D_NET *11 0.000266362

*CONN
*I *589:A I *C 895.185 707.995 *L 0.00161 *D INVX4
*I *566:Y O *C 893.335 708.5 *L 0 *D BUFX2

*CAP
1 *589:A 9.91056e-06
2 *566:Y 2.26696e-05
3 *11:2 6.30405e-05
4 *11:3 1.75202e-05
5 *11:4 7.106e-05
6 *11:5 2.27607e-05
7 *11:6 2.55397e-05
8 *11:7 1.69304e-05
9 *11:8 1.69304e-05

*RES
1 *11:8 *589:A 0.601422
2 *11:7 *11:8 0.645135
3 *11:5 *11:7 0.59915
4 *11:6 *11:5 8.76079178
5 *11:4 *11:6 1.50683
6 *11:3 *566:Y 8.76079178
7 *11:2 *11:4 4.31877
8 *11:2 *11:3 0.675347
*END

*D_NET *12 0.000282421

*CONN
*I *710:A I *C 1329.1851 583.245 *L 0.00161 *D INVX4
*I *567:Y O *C 1327.735 582.74 *L 0 *D BUFX2

*CAP
1 *710:A 2.26705e-05
2 *567:Y 2.26705e-05
3 *12:2 7.18201e-05
4 *12:3 2.63004e-05
5 *12:4 9.224e-05
6 *12:5 4.67203e-05

*RES
1 *12:5 *710:A 8.76079178
2 *12:4 *12:5 2.82584
3 *12:3 *567:Y 8.76079178
4 *12:2 *12:4 4.31877
5 *12:2 *12:3 1.35631
*END

*D_NET *13 0.000261691

*CONN
*I *708:A I *C 1328.585 646.435 *L 0.00161 *D INVX4
*I *568:Y O *C 1327.135 646.94 *L 0 *D BUFX2

*CAP
1 *708:A 2.26704e-05
2 *568:Y 1.98002e-05
3 *13:2 4.671e-05
4 *13:3 4.671e-05
5 *13:5 3.643e-05
6 *13:6 3.32604e-05
7 *13:7 1.789e-05
8 *13:8 1.91102e-05
9 *13:9 1.91102e-05

*RES
1 *13:8 *708:A 8.76079178
2 *13:8 *13:9 0.799802
3 *13:2 *13:9 8.76079178
4 *13:5 *568:Y 1.20284
5 *13:3 *13:2 5.02861
6 *13:5 *13:6 1.52795
7 *13:7 *13:3 8.76079178
8 *13:7 *13:6 8.76079178
9 *13:4 *13:7 1.02184
*END

*D_NET *14 0.00025418

*CONN
*I *820:A I *C 253.1 461.605 *L 0.00241 *D CLKINVX6
*I *569:Y O *C 251.735 462.26 *L 0 *D BUFX2

*CAP
1 *820:A 3.69305e-05
2 *569:Y 2.26698e-05
3 *14:2 1.79394e-05
4 *14:3 6.34600146e-05
5 *14:4 6.34e-05
6 *14:5 4.97793e-05

*RES
1 *14:5 *820:A 1.81255
2 *14:2 *14:5 8.76079178
3 *14:3 *14:2 0.675881
4 *14:4 *14:3 4.30393
5 *569:Y *14:4 8.76079178
*END

*D_NET *15 0.000216311

*CONN
*I *720:A I *C 953.585 333.585 *L 0.00161 *D INVX4
*I *570:Y O *C 952.135 333.08 *L 0 *D BUFX2

*CAP
1 *720:A 2.26704e-05
2 *570:Y 2.26704e-05
3 *15:3 1.78899e-05
4 *15:4 5.163e-05
5 *15:5 2.49102e-05
6 *15:6 2.49102e-05
7 *15:7 5.163e-05

*RES
1 *15:5 *720:A 8.76079178
2 *15:5 *15:6 1.10098
3 *15:7 *15:6 8.76079178
4 *15:4 *15:7 2.84362
5 *15:3 *15:4 8.76079178
6 *15:3 *570:Y 8.76079178
7 *15:2 *15:3 1.02184
*END

*D_NET *16 0.000317122

*CONN
*I *641:A I *C 1780.985 1263.825 *L 0.00161 *D INVX4
*I *571:Y O *C 1781.135 1265.96 *L 0 *D BUFX2

*CAP
1 *641:A 2.26702e-05
2 *571:Y 2.26702e-05
3 *16:2 3.56807e-05
4 *16:3 3.56807e-05
5 *16:4 4.68105e-05
6 *16:5 4.68105e-05
7 *16:6 5.34e-05
8 *16:7 5.34e-05

*RES
1 *16:4 *571:Y 8.76079178
2 *16:5 *16:4 2.68949
3 *16:7 *16:5 8.76079178
4 *16:6 *16:7 2.80552
5 *16:2 *16:6 8.76079178
6 *16:3 *16:2 1.82753
7 *641:A *16:3 8.76079178
*END

*D_NET *17 0.000346332

*CONN
*I *637:A I *C 1781.385 1198.845 *L 0.00161 *D INVX4
*I *572:Y O *C 1781.735 1197.5601 *L 0 *D BUFX2

*CAP
1 *637:A 2.26699e-05
2 *572:Y 2.26699e-05
3 *17:2 7.62703711e-05
4 *17:3 7.62703711e-05
5 *17:5 6.52805e-05
6 *17:6 1.78901e-05
7 *17:7 6.52805e-05

*RES
1 *17:2 *637:A 8.76079178
2 *17:3 *17:2 4.87461
3 *17:5 *17:3 8.76079178
4 *17:5 *17:7 3.51028
5 *17:6 *17:7 8.76079178
6 *17:6 *572:Y 8.76079178
7 *17:4 *17:6 1.01489
*END

*D_NET *18 0.00077914

*CONN
*I *653:A I *C 1782.385 1079.145 *L 0.00161 *D INVX4
*I *573:Y O *C 1781.9351 1082.0601 *L 0 *D BUFX2

*CAP
1 *653:A 9.84845e-06
2 *573:Y 1.96501e-05
3 *18:2 7.20617e-05
4 *18:3 0.00021886
5 *18:4 7.23923e-05
6 *18:5 0.00021886
7 *18:6 1.68716e-05
8 *18:7 6.62307e-05
9 *18:8 6.21297e-05
10 *18:9 2.22417e-05

*RES
1 *18:9 *573:Y 1.22565
2 *18:8 *18:9 0.24304
3 *18:4 *18:8 3.06432
4 *18:6 *653:A 0.612825
5 *18:5 *18:4 8.76084
6 *18:6 *18:7 0.659761
7 *18:3 *18:5 12.4533701
8 *18:2 *18:7 3.06432
9 *18:2 *18:3 8.76084
*END

*D_NET *19 0.00046646

*CONN
*I *661:A I *C 766.9 337.155 *L 0.00241 *D CLKINVX6
*I *574:Y O *C 765.735 335.72 *L 0 *D BUFX2

*CAP
1 *661:A 1.96705e-05
2 *574:Y 2.26698e-05
3 *19:2 8.425e-05
4 *19:3 8.425e-05
5 *19:4 6.33993e-05
6 *19:5 7.15498e-05
7 *19:6 3.0711e-05
8 *19:7 3.10607e-05
9 *19:8 3.25198e-05
10 *19:9 2.638e-05

*RES
1 *19:8 *661:A 1.19843
2 *19:9 *19:8 8.76079178
3 *19:7 *19:9 1.34789
4 *19:7 *19:2 1.07973
5 *19:3 *19:2 5.39181
6 *19:6 *19:3 1.07973
7 *19:5 *19:6 1.34575
8 *19:4 *19:5 4.31877
9 *574:Y *19:4 8.76079178
*END

*D_NET *20 0.00023838

*CONN
*I *665:A I *C 1206.5 1079.295 *L 0.00241 *D CLKINVX6
*I *575:Y O *C 1205.135 1078.64 *L 0 *D BUFX2

*CAP
1 *665:A 2.95102e-05
2 *575:Y 2.26696e-05
3 *20:2 6.34e-05
4 *20:3 4.23595e-05
5 *20:4 1.746e-05
6 *20:5 6.29801e-05

*RES
1 *20:3 *665:A 1.79772
2 *20:4 *20:3 8.76079178
3 *20:4 *20:5 0.672539
4 *20:2 *20:5 4.31877
5 *575:Y *20:2 8.76079178
*END

*D_NET *21 0.000273939

*CONN
*I *669:A I *C 1205.9 1019.065 *L 0.00241 *D CLKINVX6
*I *576:Y O *C 1204.535 1019.72 *L 0 *D BUFX2

*CAP
1 *669:A 2.97094e-05
2 *576:Y 2.26708e-05
3 *21:2 6.346e-05
4 *21:3 1.79394e-05
5 *21:4 7.156e-05
6 *21:5 4.25604e-05
7 *21:6 2.60394e-05

*RES
1 *21:5 *669:A 1.79758
2 *21:6 *21:5 8.76079178
3 *21:4 *21:6 1.34789
4 *21:3 *576:Y 8.76079178
5 *21:2 *21:4 4.31877
6 *21:2 *21:3 0.678154
*END

*D_NET *22 0.00023838

*CONN
*I *597:A I *C 952.3 248.235 *L 0.00241 *D CLKINVX6
*I *577:Y O *C 950.935 247.58 *L 0 *D BUFX2

*CAP
1 *597:A 2.95102e-05
2 *577:Y 2.26696e-05
3 *22:2 6.34e-05
4 *22:3 4.23595e-05
5 *22:4 1.746e-05
6 *22:5 6.29801e-05

*RES
1 *22:3 *597:A 1.8818
2 *22:4 *22:3 8.76079178
3 *22:4 *22:5 0.694329
4 *22:2 *22:5 4.45833
5 *577:Y *22:2 8.76079178
*END

*D_NET *23 0.0312787

*CONN
*I *928:B0 I *C 1134.7 330.125 *L 0.000212 *D AOI21XL
*I *578:Y O *C 826.165 330.455 *L 0 *D CLKINVX6

*CAP
1 *928:B0 2.27295e-05
2 *578:Y 2.27295e-05
3 *23:2 3.58161e-05
4 *23:3 3.58161e-05
5 *23:4 0.01504622
6 *23:6 0.00676994
7 *23:7 1.79081e-05
8 *23:8 0.00829396
9 *23:8 *227:5 0.00030932
10 *23:4 *227:6 0.00030932
11 *23:4 *227:6 0.00020754
12 *23:6 *227:7 0.000207540019

*RES
1 *23:2 *578:Y 8.76517
2 *23:3 *23:2 2.02897
3 *23:6 *23:3 8.76517
4 *23:4 *23:8 590.98175
5 *23:6 *23:4 505.485
6 *23:7 *928:B0 8.76517
7 *23:7 *23:8 8.76517
8 *23:5 *23:7 1.019
*END

*D_NET *24 0.030326

*CONN
*I *579:Y O *C 516.165 330.455 *L 0 *D CLKINVX6
*I *578:A I *C 825.3 330.315 *L 0.00241 *D CLKINVX6

*CAP
1 *579:Y 2.26281e-05
2 *578:A 2.95734e-05
3 *24:2 0.0112475
4 *24:3 0.0146825
5 *24:5 1.79232e-05
6 *24:6 0.000406634
7 *24:7 1.76992e-05
8 *24:8 0.00384162
9 *24:9 4.23437e-05
10 *24:10 1.76992e-05

*RES
1 *24:9 *578:A 1.8005
2 *24:10 *24:9 8.76243
3 *24:7 *24:10 0.672187
4 *24:8 *24:7 8.76243
5 *24:3 *24:8 277.649
6 *24:2 *24:3 786.650574
7 *24:6 *24:2 28.832
8 *24:5 *24:6 8.76243
9 *24:5 *579:Y 8.76243
10 *24:4 *24:5 1.02028
*END

*D_NET *25 0.0321347

*CONN
*I *951:A I *C 249.1 273.505 *L 0.000212 *D INVXL
*I *580:Y O *C 251.965 330.455 *L 0 *D CLKINVX6
*I *579:A I *C 515.3 330.315 *L 0.00241 *D CLKINVX6

*CAP
1 *951:A 2.2765e-05
2 *580:Y 4.53303e-05
3 *579:A 9.84486e-05
4 *25:3 0.01308688
5 *25:4 0.00226592
6 *25:5 7.32873e-05
7 *25:6 0.00226592
8 *25:7 7.44855e-05
9 *25:8 4.67282e-05
10 *25:9 4.553e-05
11 *25:10 0.000372627
12 *25:11 0.00037742
13 *25:12 3.0553e-05
14 *25:13 2.59601e-05
15 *25:14 1.73733e-05
16 *25:15 1.73733e-05
17 *25:16 0.011183
18 *25:17 0.000111229
19 *25:18 2.59601e-05
20 *25:19 2.59601e-05
21 *25:20 0.00192185

*RES
1 *25:17 *579:A 5.98966
2 *25:18 *25:17 8.76243
3 *25:18 *25:19 1.34437
4 *25:20 *25:19 8.76243
5 *25:3 *25:20 138.687
6 *25:16 *25:3 786.650574
7 *25:15 *25:16 8.76243
8 *25:14 *25:15 0.672187
9 *580:Y *25:14 8.76243
10 *25:13 *580:Y 8.76243
11 *25:12 *25:13 1.34437
12 *25:11 *25:12 1.0803
13 *25:10 *25:11 26.1313
14 *25:9 *25:10 8.76243
15 *25:8 *25:9 1.8005
16 *25:7 *25:8 1.29636
17 *25:5 *25:7 3.56499
18 *25:6 *25:5 8.76243
19 *25:4 *25:6 177.229
20 *951:A *25:4 8.76243
*END

*D_NET *26 0.0236076

*CONN
*I *581:Y O *C 251.215 578.33 *L 0 *D CLKINVX4
*I *580:A I *C 251.1 330.315 *L 0.00241 *D CLKINVX6

*CAP
1 *581:Y 2.26968e-05
2 *580:A 2.26968e-05
3 *26:2 0.00845134
4 *26:3 0.00845134
5 *26:4 0.000599402
6 *26:5 0.00058109
7 *26:6 0.000230063
8 *26:7 0.000230063
9 *26:8 0.000142629
10 *26:9 0.000142629
11 *26:10 0.000106133
12 *26:11 0.000110905
13 *26:12 0.00153642
14 *26:13 0.00153642
15 *26:14 4.52647e-05
16 *26:15 5.90633e-05
17 *26:16 0.000200532
18 *26:17 0.000200532
19 *26:13 *464:2 0.00025664
20 *26:12 *464:3 0.00025664
21 *26:2 *464:4 3.859e-05
22 *26:3 *464:5 3.859e-05
23 *26:7 *464:2 9.42e-06
24 *26:6 *464:3 9.42e-06
25 *26:7 *464:4 8.24e-06
26 *26:6 *464:5 8.24e-06
27 *26:13 *464:6 8.4e-06
28 *26:12 *464:7 8.40001646e-06
29 *26:2 *285:2 0.00014536
30 *26:3 *285:3 0.00014536
31 *26:2 *285:4 1.21e-06
32 *26:3 *285:5 1.21e-06
33 *26:2 *285:6 1.52e-06
34 *26:3 *285:7 1.52000397e-06

*RES
1 *26:10 *580:A 8.7624
2 *26:10 *26:11 13.6537
3 *26:11 *26:16 1.0803
4 *26:16 *26:17 12.7835
5 *26:3 *26:17 1.0803
6 *26:3 *26:2 655.539551
7 *26:6 *26:2 1.0803
8 *26:6 *26:7 16.2244
9 *26:7 *26:12 1.0803
10 *26:12 *26:13 133.977
11 *26:8 *26:13 1.0803
12 *26:8 *26:9 8.11222
13 *26:9 *26:14 1.0803
14 *26:14 *26:15 2.1906
15 *26:5 *581:Y 8.7624
16 *26:4 *26:15 2.15059
17 *26:4 *26:5 40.5611
*END

*D_NET *27 0.0220138

*CONN
*I *893:D I *C 1777.1 333.735 *L 0.000212 *D NAND4XL
*I *582:Y O *C 1554.55 335.335 *L 0 *D INVX4

*CAP
1 *893:D 2.27479e-05
2 *582:Y 2.27479e-05
3 *27:2 1.79326e-05
4 *27:3 1.79326e-05
5 *27:4 7.57155e-05
6 *27:5 7.57155e-05
7 *27:6 0.01088161
8 *27:7 0.0108692
9 *27:8 3.02198e-05

*RES
1 *27:5 *893:D 8.7591
2 *27:5 *27:4 4.37955
3 *27:8 *27:4 8.7591
4 *27:6 *27:8 1.3246
5 *27:7 *27:6 782.065491
6 *27:2 *582:Y 8.7591
7 *27:3 *27:7 8.7591
8 *27:3 *27:2 0.680202
*END

*D_NET *28 0.0220306

*CONN
*I *583:Y O *C 1329.15 335.335 *L 0 *D INVX4
*I *582:A I *C 1554.385 335.215 *L 0.00161 *D INVX4

*CAP
1 *583:Y 0.000148533
2 *582:A 9.97727e-06
3 *28:2 0.01054614
4 *28:5 0.000161407
5 *28:6 1.78625e-05
6 *28:7 0.00395551
7 *28:8 0.000280168
8 *28:9 1.78625e-05
9 *28:10 0.0066085
10 *28:11 1.36785e-05
11 *28:12 0.000270996

*RES
1 *28:11 *582:A 0.598691
2 *28:11 *28:12 0.343152
3 *28:8 *28:12 16.1793
4 *28:9 *28:8 8.76133
5 *28:4 *28:9 1.02216
6 *28:10 *28:9 8.76133
7 *28:2 *28:10 478.485443
8 *28:7 *28:2 286.138
9 *583:Y *28:5 8.98766
10 *28:6 *28:7 8.76133
11 *28:6 *28:5 8.76133
12 *28:3 *28:6 1.02216
*END

*D_NET *29 0.00893448

*CONN
*I *584:Y O *C 1238.53 335.2 *L 0 *D INVX2
*I *583:A I *C 1328.985 335.215 *L 0.00161 *D INVX4

*CAP
1 *584:Y 2.26564e-05
2 *583:A 9.8897e-06
3 *29:4 1.78614e-05
4 *29:5 0.000301906
5 *29:6 0.00392801
6 *29:7 0.000305862
7 *29:8 0.000200971
8 *29:9 1.78614e-05
9 *29:10 0.00392399
10 *29:11 1.36058e-05
11 *29:12 0.00019186

*RES
1 *29:11 *583:A 0.600648
2 *29:11 *29:12 0.341375
3 *29:8 *29:12 11.3864
4 *29:9 *29:8 8.75908
5 *29:3 *29:9 1.0198
6 *29:10 *29:9 8.75908
7 *29:6 *29:10 283.194489
8 *29:6 *29:7 1.02413
9 *29:5 *29:7 21.2387
10 *29:4 *29:5 8.75908
11 *29:4 *584:Y 8.75908
12 *29:2 *29:4 1.0198
*END

*D_NET *30 0.023017

*CONN
*I *585:Y O *C 1015.15 335.335 *L 0 *D INVX4
*I *584:A I *C 1238.1 335.065 *L 0.000801 *D INVX2

*CAP
1 *585:Y 0.000296951
2 *584:A 2.26616e-05
3 *30:2 0.01100094
4 *30:3 0.0109969
5 *30:6 0.000309876
6 *30:7 1.79614e-05
7 *30:8 0.000178943
8 *30:9 1.79614e-05
9 *30:10 0.000174914

*RES
1 *30:9 *584:A 8.75912
2 *30:5 *30:9 1.01958
3 *30:10 *30:9 8.75912
4 *30:8 *30:10 12.038
5 *30:8 *30:2 1.03117
6 *30:3 *30:2 759.309448
7 *585:Y *30:6 17.9817
8 *30:7 *30:3 8.75912
9 *30:7 *30:6 8.75912
10 *30:4 *30:7 1.01958
*END

*D_NET *31 0.0217557

*CONN
*I *891:D I *C 1778.9 707.845 *L 0.000212 *D NAND4XL
*I *586:Y O *C 1558.35 708.115 *L 0 *D INVX4

*CAP
1 *891:D 2.26849e-05
2 *586:Y 2.98236e-05
3 *31:2 0.01039621
4 *31:3 0.01039621
5 *31:6 4.26731e-05
6 *31:7 1.79259e-05
7 *31:8 1.79259e-05
8 *31:2 *166:6 0.00041622
9 *31:3 *166:3 0.000416220009

*RES
1 *31:8 *891:D 8.76202
2 *31:5 *31:8 1.02105
3 *31:2 *31:8 8.76202
4 *31:3 *31:2 778.085938
5 *586:Y *31:6 1.79277
6 *31:7 *31:3 8.76202
7 *31:7 *31:6 8.76202
8 *31:4 *31:7 1.02105
*END

*D_NET *32 0.0216324

*CONN
*I *587:Y O *C 1337.15 708.115 *L 0 *D INVX4
*I *586:A I *C 1558.1851 707.995 *L 0.00161 *D INVX4

*CAP
1 *587:Y 0.000376288
2 *586:A 9.93854e-06
3 *32:2 0.01002034
4 *32:5 0.000389132
5 *32:6 1.78894e-05
6 *32:7 0.00334027
7 *32:8 0.000379193
8 *32:9 1.78894e-05
9 *32:10 0.00669781
10 *32:11 1.36082e-05
11 *32:12 0.000370019

*RES
1 *32:11 *586:A 0.599265
2 *32:11 *32:12 0.340323
3 *32:8 *32:12 22.1728
4 *32:9 *32:8 8.75963
5 *32:4 *32:9 1.02097
6 *32:10 *32:9 8.75963
7 *32:2 *32:10 484.8573
8 *32:7 *32:2 241.533
9 *587:Y *32:5 22.7721
10 *32:6 *32:7 8.75963
11 *32:6 *32:5 8.75963
12 *32:3 *32:6 1.02097
*END

*D_NET *33 0.0217462

*CONN
*I *588:Y O *C 1115.75 708.115 *L 0 *D INVX4
*I *587:A I *C 1336.985 707.995 *L 0.00161 *D INVX4

*CAP
1 *588:Y 0.000346504
2 *587:A 2.25668e-05
3 *33:2 0.01048875
4 *33:3 0.01048875
5 *33:6 0.000359308
6 *33:7 1.77653e-05
7 *33:8 1.12034e-05
8 *33:9 1.12034e-05

*RES
1 *33:8 *587:A 8.76378
2 *33:5 *33:8 0.764081
3 *33:8 *33:9 0.173655
4 *33:2 *33:9 8.76378
5 *33:3 *33:2 758.709656
6 *588:Y *33:6 20.9775
7 *33:7 *33:3 8.76378
8 *33:7 *33:6 8.76378
9 *33:4 *33:7 1.01878
*END

*D_NET *34 0.0217348

*CONN
*I *589:Y O *C 895.35 708.115 *L 0 *D INVX4
*I *588:A I *C 1115.585 707.995 *L 0.00161 *D INVX4

*CAP
1 *589:Y 0.000306884
2 *588:A 2.27035e-05
3 *34:2 0.00698573
4 *34:3 0.0101216
5 *34:4 0.00315378
6 *34:7 0.000319857
7 *34:8 1.77613e-05
8 *34:9 1.12745e-05
9 *34:10 1.12745e-05
10 *34:2 *325:10 1.029e-05
11 *34:3 *325:9 1.029e-05
12 *34:2 *325:8 0.00024065
13 *34:3 *325:4 0.00024065
14 *34:3 *325:4 0.00014102
15 *34:4 *325:7 0.000141019996

*RES
1 *34:9 *588:A 8.75873
2 *34:6 *34:9 0.762319
3 *34:9 *34:10 0.174698
4 *34:2 *34:10 8.75873
5 *34:3 *34:2 520.409668
6 *34:4 *34:3 238.106
7 *589:Y *34:7 18.5736
8 *34:8 *34:4 8.75873
9 *34:8 *34:7 8.75873
10 *34:5 *34:8 1.02437
*END

*D_NET *35 0.0316029

*CONN
*I *889:D I *C 1776.3 579.975 *L 0.000212 *D NAND4XL
*I *590:Y O *C 1473.365 583.535 *L 0 *D CLKINVX6

*CAP
1 *889:D 2.27503e-05
2 *590:Y 2.27503e-05
3 *35:2 0.01476177
4 *35:3 0.0111024
5 *35:4 0.00367721
6 *35:6 0.000183128
7 *35:7 0.000183128
8 *35:8 1.77948e-05
9 *35:4 *154:2 0.00015363
10 *35:2 *154:3 0.00015363
11 *35:2 *154:2 0.00025211
12 *35:3 *154:3 0.000252109996
13 *35:4 *107:6 0.00016949
14 *35:2 *107:4 0.00016949
15 *35:2 *107:6 0.00024081
16 *35:3 *107:4 0.000240810006

*RES
1 *35:7 *590:Y 8.76004
2 *35:6 *35:7 12.1052
3 *35:3 *35:6 8.76004
4 *35:2 *35:4 287.673
5 *35:3 *35:2 788.596191
6 *35:8 *889:D 8.76004
7 *35:8 *35:4 8.76004
8 *35:5 *35:8 1.01077
*END

*D_NET *36 0.030735

*CONN
*I *591:Y O *C 1165.765 583.535 *L 0 *D CLKINVX6
*I *590:A I *C 1472.5 583.395 *L 0.00241 *D CLKINVX6

*CAP
1 *591:Y 2.27242e-05
2 *590:A 2.94666e-05
3 *36:2 9.13963e-05
4 *36:3 9.13963e-05
5 *36:4 0.00818259
6 *36:5 0.00817859
7 *36:6 0.0070108
8 *36:8 1.78547e-05
9 *36:9 0.00413468
10 *36:10 1.74802e-05
11 *36:11 0.00289796
12 *36:12 4.2327e-05
13 *36:13 1.74802e-05

*RES
1 *36:12 *590:A 1.79964
2 *36:13 *36:12 8.76234
3 *36:10 *36:13 0.672682
4 *36:11 *36:10 8.76234
5 *36:6 *36:11 209.597
6 *36:9 *36:6 301.729
7 *36:9 *36:2 1.02213
8 *36:3 *36:2 5.67849
9 *36:4 *36:3 1.02213
10 *36:5 *36:4 572.531311
11 *36:8 *36:5 8.76234
12 *36:8 *591:Y 8.76234
13 *36:7 *36:8 1.02213
*END

*D_NET *37 0.0215348

*CONN
*I *592:Y O *C 945.75 583.125 *L 0 *D INVX4
*I *591:A I *C 1164.9 583.395 *L 0.00241 *D CLKINVX6

*CAP
1 *592:Y 0.000326694
2 *591:A 2.95701e-05
3 *37:2 0.01036298
4 *37:4 0.000339661
5 *37:5 1.78686e-05
6 *37:6 0.000799342
7 *37:7 1.73942e-05
8 *37:8 0.00958151
9 *37:9 4.23786e-05
10 *37:10 1.73942e-05

*RES
1 *37:9 *591:A 1.79806
2 *37:10 *37:9 8.75759
3 *37:7 *37:10 0.676915
4 *37:8 *37:7 8.75759
5 *37:2 *37:8 693.161072
6 *37:6 *37:2 57.3051
7 *592:Y *37:4 19.7786
8 *37:5 *37:6 8.75759
9 *37:5 *37:4 8.75759
10 *37:3 *37:5 1.02595
*END

*D_NET *38 0.01724

*CONN
*I *593:Y O *C 770.13 582.77 *L 0 *D INVX3
*I *592:A I *C 945.585 583.245 *L 0.00161 *D INVX4

*CAP
1 *593:Y 2.27508e-05
2 *592:A 2.27508e-05
3 *38:2 0.0085688
4 *38:3 0.0085688
5 *38:5 1.7913e-05
6 *38:6 1.9482e-05
7 *38:7 1.9482e-05

*RES
1 *38:7 *592:A 8.7635
2 *38:6 *38:7 0.832816
3 *38:2 *38:6 8.7635
4 *38:3 *38:2 620.220825
5 *38:5 *38:3 8.7635
6 *38:5 *593:Y 8.7635
7 *38:4 *38:5 1.02209
*END

*D_NET *39 0.0171295

*CONN
*I *892:D I *C 1778.1 518.415 *L 0.000212 *D NAND4XL
*I *594:Y O *C 1605.73 516.95 *L 0 *D INVX3

*CAP
1 *892:D 2.26572e-05
2 *594:Y 4.95386e-05
3 *39:3 6.23393e-05
4 *39:4 1.79209e-05
5 *39:5 0.00838892
6 *39:6 9.95892e-05
7 *39:7 0.00838892
8 *39:8 9.95892e-05

*RES
1 *39:8 *892:D 8.75731
2 *39:6 *39:8 6.65077
3 *39:7 *39:6 8.75731
4 *39:5 *39:7 602.855896
5 *594:Y *39:3 2.99883
6 *39:4 *39:5 8.75731
7 *39:4 *39:3 8.75731
8 *39:2 *39:4 1.02107
*END

*D_NET *40 0.0307908

*CONN
*I *595:Y O *C 1300.765 516.185 *L 0 *D CLKINVX6
*I *594:A I *C 1605.1 516.325 *L 0.0012 *D INVX3

*CAP
1 *595:Y 2.27706e-05
2 *594:A 2.27706e-05
3 *40:4 1.79888e-05
4 *40:5 0.000418979
5 *40:6 0.000423077
6 *40:7 0.00508239
7 *40:8 0.0149227
8 *40:9 1.79888e-05
9 *40:10 0.00986217

*RES
1 *40:9 *594:A 8.76069
2 *40:3 *40:9 1.01724
3 *40:10 *40:9 8.76069
4 *40:8 *40:10 680.261536
5 *40:7 *40:8 367.555
6 *40:6 *40:7 1.02762
7 *40:5 *40:6 29.7386
8 *40:4 *40:5 8.76069
9 *40:4 *595:Y 8.76069
10 *40:2 *40:4 1.01724
*END

*D_NET *41 0.0311542

*CONN
*I *596:Y O *C 995.365 516.185 *L 0 *D CLKINVX6
*I *595:A I *C 1299.9 516.325 *L 0.00241 *D CLKINVX6

*CAP
1 *596:Y 2.26749e-05
2 *595:A 2.26749e-05
3 *41:4 1.7816e-05
4 *41:5 0.000360485
5 *41:6 0.000364418
6 *41:7 0.0114943
7 *41:8 0.01516326
8 *41:9 1.7816e-05
9 *41:10 0.00369069

*RES
1 *41:9 *595:A 8.76243
2 *41:3 *41:9 1.02028
3 *41:10 *41:9 8.76243
4 *41:8 *41:10 266.834
5 *41:7 *41:8 786.650574
6 *41:6 *41:7 1.02028
7 *41:5 *41:6 25.4831
8 *41:4 *41:5 8.76243
9 *41:4 *596:Y 8.76243
10 *41:2 *41:4 1.02028
*END

*D_NET *42 0.0295626

*CONN
*I *597:Y O *C 953.165 248.375 *L 0 *D CLKINVX6
*I *596:A I *C 994.5 516.325 *L 0.00241 *D CLKINVX6

*CAP
1 *597:Y 2.27137e-05
2 *596:A 2.27137e-05
3 *42:2 0.0092456
4 *42:3 0.0092456
5 *42:4 0.00206949
6 *42:5 0.000794556
7 *42:6 0.00130061
8 *42:7 0.00336388
9 *42:8 0.00336854
10 *42:9 6.70124e-05
11 *42:10 6.22158e-05

*RES
1 *42:10 *596:A 8.76395
2 *42:9 *42:10 4.03288
3 *42:8 *42:9 1.08377
4 *42:7 *42:8 256.26
5 *42:6 *42:7 8.76395
6 *42:4 *42:6 77.9377
7 *42:5 *42:4 47.3003
8 *42:2 *42:5 8.76395
9 *42:3 *42:2 682.942139
10 *597:Y *42:3 8.76395
*END

*D_NET *43 0.0226968

*CONN
*I *894:D I *C 1780.1 398.715 *L 0.000212 *D NAND4XL
*I *598:Y O *C 1693.95 247.965 *L 0 *D INVX4

*CAP
1 *894:D 2.26715e-05
2 *598:Y 2.26715e-05
3 *43:2 0.0059431
4 *43:3 0.00429053
5 *43:4 0.0059431
6 *43:5 0.00429053
7 *43:6 0.000946851
8 *43:7 0.00096517
9 *43:8 2.25808e-05
10 *43:9 0.000131585
11 *43:10 0.000117982

*RES
1 *43:8 *894:D 8.7636
2 *43:8 *43:10 1.07057
3 *43:9 *43:10 8.00871
4 *43:7 *43:9 2.14115
5 *43:6 *43:7 70.1019
6 *43:5 *43:6 8.7636
7 *43:3 *43:5 259.984
8 *43:4 *43:3 8.7636
9 *43:2 *43:4 449.750305
10 *598:Y *43:2 8.7636
*END

*D_NET *44 0.0169709

*CONN
*I *599:Y O *C 1520.33 247.61 *L 0 *D INVX3
*I *598:A I *C 1693.785 248.085 *L 0.00161 *D INVX4

*CAP
1 *599:Y 4.95348e-05
2 *598:A 9.95612e-06
3 *44:4 6.23179e-05
4 *44:5 1.79456e-05
5 *44:6 0.00805524
6 *44:7 0.000349448
7 *44:8 1.79456e-05
8 *44:9 0.00805524
9 *44:10 0.000339983
10 *44:11 1.32748e-05

*RES
1 *44:11 *598:A 0.624885
2 *44:10 *44:11 0.321632
3 *44:7 *44:10 21.3288
4 *44:8 *44:7 8.75759
5 *44:3 *44:8 1.05679
6 *44:9 *44:8 8.75759
7 *44:6 *44:9 602.242493
8 *599:Y *44:4 3.13362
9 *44:5 *44:6 8.75759
10 *44:5 *44:4 8.75759
11 *44:2 *44:5 1.0476
*END

*D_NET *45 0.0169361

*CONN
*I *600:Y O *C 1346.9301 247.61 *L 0 *D INVX3
*I *599:A I *C 1519.7 248.235 *L 0.0012 *D INVX3

*CAP
1 *600:Y 2.26552e-05
2 *599:A 2.26552e-05
3 *45:2 7.22076e-05
4 *45:3 7.22076e-05
5 *45:4 0.00202837
6 *45:5 0.00202432
7 *45:8 1.79314e-05
8 *45:9 0.00111792
9 *45:10 0.00631792
10 *45:11 1.79314e-05
11 *45:12 0.00522189

*RES
1 *45:11 *599:A 8.76361
2 *45:7 *45:11 1.04782
3 *45:12 *45:11 8.76361
4 *45:10 *45:12 390.171265
5 *45:9 *45:10 82.7066
6 *45:2 *45:9 1.05973
7 *45:3 *45:2 5.50107
8 *45:3 *45:4 1.05973
9 *45:5 *45:4 156.644
10 *45:8 *45:5 8.76361
11 *45:8 *600:Y 8.76361
12 *45:6 *45:8 1.05378
*END

*D_NET *46 0.021729

*CONN
*I *601:Y O *C 1130.55 247.965 *L 0 *D INVX4
*I *600:A I *C 1346.3 248.235 *L 0.0012 *D INVX3

*CAP
1 *601:Y 0.000405909
2 *600:A 2.27249e-05
3 *46:2 0.00979788
4 *46:3 0.00979384
5 *46:6 0.000418766
6 *46:7 1.79407e-05
7 *46:8 0.000303946
8 *46:9 1.79407e-05
9 *46:10 0.000300059
10 *46:10 *287:6 1.305e-05
11 *46:8 *287:7 1.305e-05
12 *46:2 *287:8 1.72e-06
13 *46:3 *287:9 1.72e-06
14 *46:2 *287:9 0.00018103
15 *46:3 *287:10 0.00018103
16 *46:2 *287:10 0.00012922
17 *46:3 *287:11 0.000129219993

*RES
1 *46:9 *600:A 8.76085
2 *46:5 *46:9 1.05851
3 *46:10 *46:9 8.76085
4 *46:8 *46:10 22.7467
5 *46:2 *46:8 1.05851
6 *46:3 *46:2 737.983521
7 *601:Y *46:6 25.7195
8 *46:7 *46:3 8.76085
9 *46:7 *46:6 8.76085
10 *46:4 *46:7 1.04725
*END

*D_NET *47 0.0212503

*CONN
*I *602:Y O *C 913.75 247.965 *L 0 *D INVX4
*I *601:A I *C 1130.385 248.085 *L 0.00161 *D INVX4

*CAP
1 *602:Y 0.000287174
2 *601:A 2.26962e-05
3 *47:2 0.0010762
4 *47:3 0.00107219
5 *47:4 0.000465806
6 *47:5 0.000465806
7 *47:8 0.00029999
8 *47:9 1.78899e-05
9 *47:10 0.000891159
10 *47:11 0.00874938
11 *47:12 1.09476e-05
12 *47:13 0.00788012
13 *47:14 1.09476e-05

*RES
1 *47:14 *601:A 8.76468
2 *47:7 *47:12 0.809048
3 *47:12 *47:14 0.16181
4 *47:13 *47:12 8.76468
5 *47:11 *47:13 589.130554
6 *47:10 *47:11 65.7306
7 *47:4 *47:10 1.06075
8 *47:5 *47:4 34.861
9 *47:5 *47:2 1.06075
10 *47:3 *47:2 79.2597
11 *602:Y *47:8 18.1946
12 *47:9 *47:3 8.76468
13 *47:9 *47:8 8.76468
14 *47:6 *47:9 1.05176
*END

*D_NET *48 0.00859289

*CONN
*I *603:Y O *C 827.13 248.1 *L 0 *D INVX2
*I *602:A I *C 913.585 248.085 *L 0.00161 *D INVX4

*CAP
1 *603:Y 2.27035e-05
2 *602:A 9.93005e-06
3 *48:4 1.78916e-05
4 *48:5 0.000313343
5 *48:6 0.000317324
6 *48:7 4.33073e-05
7 *48:8 0.00286681
8 *48:9 4.33073e-05
9 *48:10 0.00286681
10 *48:11 6.37798e-05
11 *48:12 0.000730887
12 *48:13 6.37798e-05
13 *48:14 0.000730887
14 *48:15 0.000160106
15 *48:16 8.21526e-05
16 *48:17 1.78916e-05
17 *48:18 0.000156081
18 *48:19 7.266e-05
19 *48:20 1.32546e-05

*RES
1 *48:20 *602:A 0.626106
2 *48:19 *48:20 0.319644
3 *48:16 *48:19 4.38933
4 *48:17 *48:16 8.76219
5 *48:3 *48:17 1.0512
6 *48:18 *48:17 8.76219
7 *48:15 *48:18 11.0096
8 *48:14 *48:15 1.05779
9 *48:12 *48:14 54.6788
10 *48:12 *48:13 1.05779
11 *48:11 *48:13 4.74852
12 *48:10 *48:11 1.05779
13 *48:8 *48:10 215.960495
14 *48:8 *48:9 1.05779
15 *48:7 *48:9 2.20126
16 *48:6 *48:7 1.05779
17 *48:5 *48:6 22.7507
18 *48:4 *48:5 8.76219
19 *48:4 *603:Y 8.76219
20 *48:2 *48:4 1.05449
*END

*D_NET *49 0.0216634

*CONN
*I *895:D I *C 1778.1 461.605 *L 0.000212 *D NAND4XL
*I *604:Y O *C 1558.9301 459.65 *L 0 *D INVX3

*CAP
1 *895:D 2.27381e-05
2 *604:Y 2.27381e-05
3 *49:2 7.9665e-05
4 *49:3 7.9665e-05
5 *49:5 1.78306e-05
6 *49:6 0.01072042
7 *49:7 0.01072042

*RES
1 *49:2 *895:D 8.76019
2 *49:3 *49:2 5.3456
3 *49:7 *49:3 8.76019
4 *49:6 *49:7 771.650024
5 *49:5 *49:6 8.76019
6 *49:5 *604:Y 8.76019
7 *49:4 *49:5 1.02438
*END

*D_NET *50 0.0216632

*CONN
*I *605:Y O *C 1337.55 460.005 *L 0 *D INVX4
*I *604:A I *C 1558.3 460.275 *L 0.0012 *D INVX3

*CAP
1 *605:Y 2.27041e-05
2 *604:A 2.27041e-05
3 *50:2 0.010782
4 *50:5 1.7933e-05
5 *50:6 0.00369189
6 *50:7 1.7933e-05
7 *50:8 0.00710804

*RES
1 *50:7 *604:A 8.7629
2 *50:4 *50:7 1.02077
3 *50:8 *50:7 8.7629
4 *50:2 *50:8 514.592712
5 *50:6 *50:2 267.025
6 *50:5 *50:6 8.7629
7 *50:5 *605:Y 8.7629
8 *50:3 *50:5 1.02077
*END

*D_NET *51 0.0216713

*CONN
*I *606:Y O *C 1116.15 460.005 *L 0 *D INVX4
*I *605:A I *C 1337.385 460.125 *L 0.00161 *D INVX4

*CAP
1 *606:Y 0.000336659
2 *605:A 2.26674e-05
3 *51:4 0.000349429
4 *51:5 1.78785e-05
5 *51:6 0.01046132
6 *51:7 1.10144e-05
7 *51:8 0.01046132
8 *51:9 1.10144e-05

*RES
1 *51:9 *605:A 8.76525
2 *51:3 *51:7 0.785293
3 *51:7 *51:9 0.161678
4 *51:8 *51:7 8.76525
5 *51:6 *51:8 756.83728
6 *606:Y *51:4 20.3714
7 *51:5 *51:6 8.76525
8 *51:5 *51:4 8.76525
9 *51:2 *51:5 1.01626
*END

*D_NET *52 0.0217391

*CONN
*I *607:Y O *C 894.55 460.005 *L 0 *D INVX4
*I *606:A I *C 1115.985 460.125 *L 0.00161 *D INVX4

*CAP
1 *607:Y 0.00032673
2 *606:A 2.2743e-05
3 *52:2 0.0104962
4 *52:5 0.000339543
5 *52:6 1.79381e-05
6 *52:7 0.00329917
7 *52:8 1.0891e-05
8 *52:9 0.00721497
9 *52:10 1.0891e-05

*RES
1 *52:10 *606:A 8.76272
2 *52:4 *52:8 0.785076
3 *52:8 *52:10 0.158601
4 *52:9 *52:8 8.76272
5 *52:2 *52:9 519.704407
6 *52:7 *52:2 238.552
7 *607:Y *52:5 19.7776
8 *52:6 *52:7 8.76272
9 *52:6 *52:5 8.76272
10 *52:3 *52:6 1.02298
*END

*D_NET *53 0.00992994

*CONN
*I *608:Y O *C 894.33 354.12 *L 0 *D INVX2
*I *607:A I *C 894.385 460.125 *L 0.00161 *D INVX4

*CAP
1 *608:Y 2.26827e-05
2 *607:A 2.26827e-05
3 *53:2 0.000344115
4 *53:3 0.000325799
5 *53:4 0.00459817
6 *53:5 0.00461649

*RES
1 *53:4 *608:Y 8.75905
2 *53:3 *607:A 8.75905
3 *53:4 *53:5 351.090393
4 *53:2 *53:3 23.0253
5 *53:2 *53:5 2.15896
*END

*D_NET *54 0.00979099

*CONN
*I *609:Y O *C 893.93 249.7 *L 0 *D INVX2
*I *608:A I *C 893.9 354.255 *L 0.000801 *D INVX2

*CAP
1 *609:Y 2.2686e-05
2 *608:A 2.2686e-05
3 *54:2 0.00456986
4 *54:3 0.00457454
5 *54:4 0.000302945
6 *54:5 0.000298268

*RES
1 *54:5 *608:A 8.76025
2 *54:4 *54:5 20.8512
3 *54:3 *54:4 1.07851
4 *54:2 *54:3 346.476471
5 *609:Y *54:2 8.76025
*END

*D_NET *55 0.0215925

*CONN
*I *896:D I *C 1777.3 272.175 *L 0.000212 *D NAND4XL
*I *610:Y O *C 1559.13 270.71 *L 0 *D INVX3

*CAP
1 *896:D 2.26683e-05
2 *610:Y 2.26683e-05
3 *55:3 1.79458e-05
4 *55:4 0.000360489
5 *55:5 0.000364425
6 *55:6 0.01031645
7 *55:7 8.76823e-05
8 *55:8 0.0103125
9 *55:9 8.76823e-05

*RES
1 *55:9 *896:D 8.76458
2 *55:7 *55:9 6.2035
3 *55:8 *55:7 8.76458
4 *55:6 *55:8 745.968262
5 *55:5 *55:6 1.02443
6 *55:4 *55:5 25.3945
7 *55:3 *55:4 8.76458
8 *55:3 *610:Y 8.76458
9 *55:2 *55:3 1.01305
*END

*D_NET *56 0.0215427

*CONN
*I *611:Y O *C 1338.95 270.355 *L 0 *D INVX4
*I *610:A I *C 1558.5 270.085 *L 0.0012 *D INVX3

*CAP
1 *611:Y 2.27412e-05
2 *610:A 2.27412e-05
3 *56:2 0.01072188
4 *56:5 1.7833e-05
5 *56:6 0.00362353
6 *56:7 1.7833e-05
7 *56:8 0.00711618

*RES
1 *56:7 *610:A 8.75747
2 *56:4 *56:7 1.01831
3 *56:8 *56:7 8.75747
4 *56:2 *56:8 513.353821
5 *56:6 *56:2 261.079
6 *56:5 *56:6 8.75747
7 *56:5 *611:Y 8.75747
8 *56:3 *56:5 1.01831
*END

*D_NET *57 0.0215691

*CONN
*I *612:Y O *C 1118.55 270.355 *L 0 *D INVX4
*I *611:A I *C 1338.785 270.235 *L 0.00161 *D INVX4

*CAP
1 *612:Y 0.000277277
2 *611:A 9.87998e-06
3 *57:4 0.000290025
4 *57:5 1.78477e-05
5 *57:6 0.0104433
6 *57:7 3.26677e-05
7 *57:8 1.78477e-05
8 *57:9 0.0104433
9 *57:10 1.35451e-05
10 *57:11 2.34251e-05

*RES
1 *57:10 *611:A 0.608737
2 *57:10 *57:11 0.344568
3 *57:7 *57:11 1.20599
4 *57:8 *57:7 8.76352
5 *57:3 *57:8 1.02222
6 *57:9 *57:8 8.76352
7 *57:6 *57:9 752.721069
8 *612:Y *57:4 16.9183
9 *57:5 *57:6 8.76352
10 *57:5 *57:4 8.76352
11 *57:2 *57:5 1.02222
*END

*D_NET *58 0.0219412

*CONN
*I *613:Y O *C 1074.55 449.745 *L 0 *D INVX4
*I *612:A I *C 1118.385 270.235 *L 0.00161 *D INVX4

*CAP
1 *613:Y 2.26706e-05
2 *612:A 9.89488e-06
3 *58:2 0.00214256
4 *58:3 0.00820837
5 *58:4 0.00820837
6 *58:5 2.27958e-05
7 *58:6 0.000578412
8 *58:7 0.00214256
9 *58:8 0.000578412
10 *58:9 1.36524e-05
11 *58:10 1.36524e-05

*RES
1 *58:9 *612:A 0.605167
2 *58:9 *58:10 0.343229
3 *58:5 *58:10 0.605167
4 *58:6 *58:5 8.76138
5 *58:6 *58:8 42.0998
6 *58:4 *613:Y 8.76138
7 *58:7 *58:8 8.76138
8 *58:3 *58:4 591.944092
9 *58:2 *58:7 128.837
10 *58:2 *58:3 8.76138
*END

*D_NET *59 0.020893

*CONN
*I *614:Y O *C 1074.55 673.915 *L 0 *D INVX4
*I *613:A I *C 1074.385 449.865 *L 0.00161 *D INVX4

*CAP
1 *614:Y 2.26598e-05
2 *613:A 2.26598e-05
3 *59:2 0.000311003
4 *59:3 0.000329252
5 *59:4 0.0001463
6 *59:5 0.000141586
7 *59:6 0.00996653
8 *59:7 0.009953

*RES
1 *59:5 *614:Y 8.76351
2 *59:4 *59:5 8.7403
3 *59:4 *59:7 1.07948
4 *59:6 *59:7 760.695862
5 *59:3 *59:6 2.15896
6 *59:2 *59:3 21.8565
7 *613:A *59:2 8.76351
*END

*D_NET *60 0.00862766

*CONN
*I *615:Y O *C 1074.53 764.52 *L 0 *D INVX2
*I *614:A I *C 1074.385 673.795 *L 0.00161 *D INVX4

*CAP
1 *615:Y 2.26827e-05
2 *614:A 2.26827e-05
3 *60:2 0.000625235
4 *60:3 0.000657161
5 *60:4 9.29619e-05
6 *60:5 9.29619e-05
7 *60:6 0.00348129
8 *60:7 0.00345404
9 *60:8 9.1687e-05
10 *60:9 8.70123e-05

*RES
1 *60:9 *615:Y 8.76151
2 *60:8 *60:9 5.4034
3 *60:5 *60:8 1.08068
4 *60:4 *60:5 6.40403
5 *60:4 *60:7 1.08068
6 *60:6 *60:7 262.308929
7 *60:3 *60:6 3.23804
8 *60:2 *60:3 45.9129
9 *614:A *60:2 8.76151
*END

*D_NET *61 0.0223513

*CONN
*I *890:D I *C 1780.1 646.285 *L 0.000212 *D NAND4XL
*I *616:Y O *C 1559.55 641.265 *L 0 *D INVX4

*CAP
1 *890:D 2.27349e-05
2 *616:Y 0.000366302
3 *61:2 4.92854e-05
4 *61:3 5.3896e-05
5 *61:5 0.000379179
6 *61:6 1.79653e-05
7 *61:7 0.0104151
8 *61:8 0.00020048
9 *61:9 0.00020048
10 *61:10 0.01041909
11 *61:11 2.19399e-05
12 *61:12 2.79814e-05
13 *61:13 3.27509e-05
14 *61:14 4.76955e-05
15 *61:15 2.60736e-05
16 *61:16 2.25759e-05
17 *61:17 4.76955e-05

*RES
1 *61:15 *890:D 8.76595
2 *61:15 *61:16 1.07432
3 *61:17 *61:16 8.76595
4 *61:14 *61:17 2.10291
5 *61:2 *61:14 8.76595
6 *61:3 *61:2 2.68579
7 *61:9 *61:3 1.07432
8 *61:8 *61:9 13.4061
9 *61:8 *61:13 1.07432
10 *61:12 *61:13 1.33718
11 *61:11 *61:12 8.76595
12 *61:10 *61:11 1.01717
13 *61:7 *61:10 749.003418
14 *616:Y *61:5 22.172
15 *61:6 *61:7 8.76595
16 *61:6 *61:5 8.76595
17 *61:4 *61:6 1.01717
*END

*D_NET *62 0.0216519

*CONN
*I *617:Y O *C 1338.15 641.265 *L 0 *D INVX4
*I *616:A I *C 1559.385 641.385 *L 0.00161 *D INVX4

*CAP
1 *617:Y 0.000346594
2 *616:A 9.92886e-06
3 *62:2 0.01001058
4 *62:5 0.000359425
5 *62:6 1.78719e-05
6 *62:7 0.00332082
7 *62:8 0.000428774
8 *62:9 1.78719e-05
9 *62:10 0.00670763
10 *62:11 0.000419151
11 *62:12 1.32894e-05

*RES
1 *62:12 *616:A 0.60014
2 *62:11 *62:12 0.303775
3 *62:8 *62:11 25.1688
4 *62:9 *62:8 8.7576
5 *62:4 *62:9 1.02246
6 *62:10 *62:9 8.7576
7 *62:2 *62:10 485.565308
8 *62:7 *62:2 240.123
9 *617:Y *62:5 20.9753
10 *62:6 *62:7 8.7576
11 *62:6 *62:5 8.7576
12 *62:3 *62:6 1.02246
*END

*D_NET *63 0.0216834

*CONN
*I *618:Y O *C 1116.75 641.265 *L 0 *D INVX4
*I *617:A I *C 1337.985 641.385 *L 0.00161 *D INVX4

*CAP
1 *618:Y 0.000326777
2 *617:A 2.27018e-05
3 *63:4 0.000339567
4 *63:5 1.79056e-05
5 *63:6 0.01047718
6 *63:7 1.10311e-05
7 *63:8 0.01047718
8 *63:9 1.10311e-05

*RES
1 *63:9 *617:A 8.76189
2 *63:3 *63:7 0.786027
3 *63:7 *63:9 0.161829
4 *63:8 *63:7 8.76189
5 *63:6 *63:8 757.545288
6 *618:Y *63:4 19.7778
7 *63:5 *63:6 8.76189
8 *63:5 *63:4 8.76189
9 *63:2 *63:5 1.01721
*END

*D_NET *64 0.00882932

*CONN
*I *619:Y O *C 1027.9301 641.4 *L 0 *D INVX2
*I *618:A I *C 1116.585 641.385 *L 0.00161 *D INVX4

*CAP
1 *619:Y 2.26483e-05
2 *618:A 9.90449e-06
3 *64:4 1.78941e-05
4 *64:5 1.86865e-05
5 *64:6 2.27143e-05
6 *64:7 0.00432727
7 *64:8 3.26188e-05
8 *64:9 1.78941e-05
9 *64:10 0.00432331
10 *64:11 2.31105e-05
11 *64:12 1.3272e-05

*RES
1 *64:12 *618:A 0.599556
2 *64:11 *64:12 0.30686
3 *64:8 *64:11 1.19911
4 *64:9 *64:8 8.76202
5 *64:3 *64:9 1.01972
6 *64:10 *64:9 8.76202
7 *64:7 *64:10 309.390015
8 *64:6 *64:7 1.02444
9 *64:5 *64:6 0.708138
10 *64:4 *64:5 8.76202
11 *64:4 *619:Y 8.76202
12 *64:2 *64:4 1.01972
*END

*D_NET *65 0.0218831

*CONN
*I *620:Y O *C 806.73 640.91 *L 0 *D INVX3
*I *619:A I *C 1027.5 641.535 *L 0.000801 *D INVX2

*CAP
1 *620:Y 2.27126e-05
2 *619:A 2.27126e-05
3 *65:2 2.61332e-05
4 *65:3 2.61332e-05
5 *65:4 0.00138438
6 *65:5 0.0089667
7 *65:6 0.000248744
8 *65:7 0.000248744
9 *65:8 0.00760422
10 *65:9 0.00123059
11 *65:10 3.44794e-05
12 *65:11 3.44794e-05
13 *65:12 0.00122662
14 *65:4 *158:9 6.149e-05
15 *65:5 *158:2 6.149e-05
16 *65:6 *158:9 1.14e-06
17 *65:7 *158:2 1.14e-06
18 *65:5 *158:2 0.00034058
19 *65:8 *158:3 0.000340579995

*RES
1 *65:10 *619:A 8.7574
2 *65:10 *65:11 2.01824
3 *65:12 *65:11 8.7574
4 *65:9 *65:12 88.1532
5 *65:6 *65:9 1.02667
6 *65:7 *65:6 18.1378
7 *65:7 *65:4 1.02667
8 *65:5 *65:4 103.834
9 *65:8 *65:5 575.075256
10 *65:2 *65:8 8.7574
11 *65:3 *65:2 1.35134
12 *620:Y *65:3 8.7574
*END

*D_NET *66 0.0218068

*CONN
*I *621:Y O *C 586.95 641.265 *L 0 *D INVX4
*I *620:A I *C 806.1 641.535 *L 0.0012 *D INVX3

*CAP
1 *621:Y 2.26804e-05
2 *620:A 2.26804e-05
3 *66:2 4.71054e-05
4 *66:3 4.71054e-05
5 *66:4 0.01039411
6 *66:5 0.01039411
7 *66:6 3.63203e-05
8 *66:7 3.63203e-05
9 *66:4 *157:9 8.58e-06
10 *66:5 *157:7 8.58e-06
11 *66:4 *157:2 0.00039469
12 *66:5 *157:3 0.000394690004

*RES
1 *66:6 *620:A 8.76258
2 *66:6 *66:7 3.0084
3 *66:4 *66:7 8.76258
4 *66:5 *66:4 782.376221
5 *66:2 *66:5 8.76258
6 *66:3 *66:2 2.69801
7 *621:Y *66:3 8.76258
*END

*D_NET *67 0.0228401

*CONN
*I *890:C I *C 1779.9 646.285 *L 0.000211 *D NAND4XL
*I *622:Y O *C 1780.53 865.79 *L 0 *D INVX3

*CAP
1 *890:C 2.26439e-05
2 *622:Y 4.45465e-05
3 *67:2 0.00171851
4 *67:3 0.00171851
5 *67:4 0.00359014
6 *67:5 0.00359014
7 *67:6 5.85641e-05
8 *67:7 2.5407e-05
9 *67:8 2.42613e-05
10 *67:9 0.00441657
11 *67:10 0.00441657
12 *67:11 9.253e-05
13 *67:12 3.97616e-05
14 *67:13 3.97616e-05
15 *67:14 9.253e-05
16 *67:2 *84:13 0.00107477
17 *67:3 *84:12 0.00107477
18 *67:2 *80:4 0.00040003
19 *67:3 *80:5 0.000400030004

*RES
1 *67:6 *622:Y 2.92918
2 *67:7 *67:6 1.31341
3 *67:8 *67:7 0.590561
4 *67:4 *67:8 8.7592
5 *67:5 *67:4 271.993
6 *67:13 *67:5 8.7592
7 *67:3 *890:C 8.7592
8 *67:12 *67:13 2.1024
9 *67:3 *67:2 213.438
10 *67:9 *67:12 8.7592
11 *67:14 *67:2 8.7592
12 *67:10 *67:9 309.623932
13 *67:11 *67:14 4.91347
14 *67:11 *67:10 8.7592
*END

*D_NET *68 0.00882654

*CONN
*I *623:Y O *C 1780.33 952.62 *L 0 *D INVX2
*I *622:A I *C 1779.9 865.165 *L 0.0012 *D INVX3

*CAP
1 *623:Y 2.26806e-05
2 *622:A 5.41361e-05
3 *68:2 0.000878031
4 *68:3 0.000878031
5 *68:4 0.00231416
6 *68:5 0.00231883
7 *68:6 0.000358608
8 *68:7 0.000353937
9 *68:9 6.69802e-05
10 *68:10 5.04563e-05
11 *68:11 1.79038e-05
12 *68:12 5.04563e-05
13 *68:4 *143:22 0.00043869
14 *68:5 *143:21 0.00043869
15 *68:6 *143:25 2.308e-05
16 *68:7 *143:24 2.308e-05
17 *68:2 *143:22 6.31e-05
18 *68:3 *143:21 6.30999786e-05
19 *68:4 *186:19 5.75e-06
20 *68:5 *186:20 5.75e-06
21 *68:4 *186:6 0.00020058
22 *68:5 *186:7 0.000200579995

*RES
1 *68:9 *622:A 2.63483
2 *68:7 *68:9 8.76106
3 *68:7 *68:6 26.2474
4 *68:3 *68:6 1.07152
5 *68:3 *68:2 68.8216
6 *68:2 *68:5 1.07152
7 *68:5 *68:4 213.444229
8 *68:10 *68:4 8.76106
9 *68:10 *68:12 3.99296
10 *68:11 *68:12 8.76106
11 *68:11 *623:Y 8.76106
12 *68:8 *68:11 1.01615
*END

*D_NET *69 0.0220812

*CONN
*I *889:B I *C 1775.9 579.975 *L 0.000212 *D NAND4XL
*I *624:Y O *C 1782.365 802.415 *L 0 *D CLKINVX6

*CAP
1 *889:B 2.2632e-05
2 *624:Y 6.39461e-05
3 *69:2 2.59414e-05
4 *69:3 5.78611e-05
5 *69:4 0.00347401
6 *69:5 3.46953e-05
7 *69:6 0.0034422
8 *69:7 0.000318556
9 *69:8 4.99612e-05
10 *69:9 0.000318556
11 *69:10 8.32687e-05
12 *69:11 3.08521e-05
13 *69:12 7.67566e-05
14 *69:13 2.61549e-05
15 *69:14 6.80028e-05
16 *69:15 0.00699147
17 *69:16 0.00699617

*RES
1 *624:Y *69:12 5.08173
2 *69:13 *69:12 8.75993
3 *69:11 *69:13 1.34706
4 *69:11 *69:16 1.07281
5 *69:15 *69:16 528.628601
6 *69:14 *69:15 8.75993
7 *69:10 *69:14 5.29145
8 *69:9 *69:10 2.62959
9 *69:7 *69:9 16.4874
10 *69:7 *69:8 2.62959
11 *69:5 *69:8 1.20993
12 *69:6 *69:5 8.75993
13 *69:4 *69:6 254.627
14 *69:3 *69:4 3.21843
15 *69:2 *69:3 1.33899
16 *889:B *69:2 8.75993
*END

*D_NET *70 0.00855803

*CONN
*I *625:Y O *C 1781.53 891.06 *L 0 *D INVX2
*I *624:A I *C 1781.5 802.275 *L 0.00241 *D CLKINVX6

*CAP
1 *625:Y 2.26804e-05
2 *624:A 2.26804e-05
3 *70:2 4.88378e-05
4 *70:3 3.05595e-05
5 *70:4 0.000614859
6 *70:5 0.000614859
7 *70:6 0.00134076
8 *70:7 0.00134545
9 *70:8 0.0020769
10 *70:9 0.00209052
11 *70:9 *97:2 2.308e-05
12 *70:8 *97:3 2.308e-05
13 *70:9 *97:4 7.18e-06
14 *70:8 *97:5 7.18e-06
15 *70:7 *97:6 9.55e-05
16 *70:6 *97:7 9.55e-05
17 *70:7 *97:8 6.59e-06
18 *70:6 *97:9 6.59e-06
19 *70:5 *97:5 4.262e-05
20 *70:4 *97:10 4.26200031e-05

*RES
1 *70:6 *624:A 8.7612
2 *70:6 *70:7 109.559
3 *70:4 *70:7 1.07285
4 *70:4 *70:5 48.2187
5 *70:5 *70:8 1.07285
6 *70:8 *70:9 155.898453
7 *70:3 *625:Y 8.7612
8 *70:2 *70:9 2.14332
9 *70:2 *70:3 1.46298
*END

*D_NET *71 0.0229982

*CONN
*I *892:B I *C 1777.7 518.415 *L 0.000212 *D NAND4XL
*I *626:Y O *C 1780.13 740.09 *L 0 *D INVX3

*CAP
1 *892:B 2.26672e-05
2 *626:Y 5.34633e-05
3 *71:2 0.00341493
4 *71:3 0.00341493
5 *71:4 0.00201066
6 *71:5 0.00200597
7 *71:6 3.02229e-05
8 *71:7 3.02229e-05
9 *71:8 0.000895745
10 *71:9 0.000895745
11 *71:10 3.6997e-05
12 *71:11 3.6997e-05
13 *71:12 3.58506e-05
14 *71:13 3.58506e-05
15 *71:14 0.0013419
16 *71:15 0.00134664
17 *71:16 2.19898e-05
18 *71:17 1.73e-05
19 *71:18 0.00271131
20 *71:19 0.00271131
21 *71:20 6.63341e-05
22 *71:21 0.000117244
23 *71:22 2.2563e-05
24 *71:23 0.000152157
25 *71:24 0.000117244
26 *71:25 7.3942e-05
27 *71:26 7.3942e-05
28 *71:27 0.000152157
29 *71:14 *92:8 0.0002279
30 *71:15 *92:9 0.0002279
31 *71:18 *92:8 0.00034741
32 *71:19 *92:9 0.00034741
33 *71:16 *92:8 6.9e-07
34 *71:17 *92:9 6.89975603e-07

*RES
1 *71:20 *626:Y 3.3887
2 *71:14 *71:20 8.75998
3 *71:15 *71:14 111.835
4 *71:16 *71:15 1.07504
5 *71:17 *71:16 0.673844
6 *71:10 *71:17 8.75998
7 *71:11 *71:10 1.41001
8 *71:26 *71:11 8.75998
9 *71:25 *71:26 4.02359
10 *71:13 *71:25 8.75998
11 *71:13 *71:12 2.42272
12 *71:18 *71:12 8.75998
13 *71:19 *71:18 194.122
14 *71:7 *892:B 8.75998
15 *71:27 *71:19 8.75998
16 *71:7 *71:6 1.46454
17 *71:23 *71:27 9.82333
18 *71:24 *71:6 8.75998
19 *71:22 *71:23 8.75998
20 *71:21 *71:24 7.02278
21 *71:2 *71:22 1.07504
22 *71:5 *71:21 8.75998
23 *71:3 *71:2 255.266312
24 *71:5 *71:4 151.155
25 *71:8 *71:3 1.07114
26 *71:9 *71:4 1.07114
27 *71:9 *71:8 67.0573
*END

*D_NET *72 0.0082591

*CONN
*I *627:Y O *C 1779.53 819.24 *L 0 *D INVX2
*I *626:A I *C 1779.5 740.715 *L 0.0012 *D INVX3

*CAP
1 *627:Y 2.26668e-05
2 *626:A 4.57771e-05
3 *72:2 0.00116234
4 *72:3 0.00114874
5 *72:4 0.000821876
6 *72:5 0.000817194
7 *72:6 6.91888e-05
8 *72:7 6.91888e-05
9 *72:8 0.000705261
10 *72:9 0.000705261
11 *72:10 6.19524e-05
12 *72:11 6.66348e-05
13 *72:12 4.40034e-05
14 *72:13 5.76071e-05
15 *72:14 0.000391118
16 *72:15 0.000391118
17 *72:16 0.000296815
18 *72:17 0.000292115
19 *72:18 5.86358e-05
20 *72:19 6.4471e-05
21 *72:20 5.97886e-05
22 *72:21 6.52691e-05
23 *72:22 6.52691e-05
24 *72:2 *84:13 0.00019478
25 *72:3 *84:12 0.00019478
26 *72:4 *84:13 0.00013385
27 *72:5 *84:12 0.00013385
28 *72:6 *84:13 4.81e-06
29 *72:7 *84:12 4.81e-06
30 *72:8 *84:13 5.042e-05
31 *72:9 *84:12 5.042e-05
32 *72:10 *84:13 2.73e-06
33 *72:11 *84:12 2.73e-06
34 *72:12 *84:13 1.82e-06
35 *72:13 *84:12 1.81998991e-06

*RES
1 *72:10 *627:Y 8.76092
2 *72:11 *72:10 3.66522
3 *72:11 *72:6 1.07286
4 *72:7 *72:6 4.70013
5 *72:12 *72:7 1.07286
6 *72:13 *72:12 2.19972
7 *72:13 *72:2 2.14717
8 *72:3 *72:2 95.6607285
9 *72:8 *72:3 1.0714
10 *72:9 *72:8 54.5332
11 *72:9 *72:4 1.0714
12 *72:5 *72:4 66.7301
13 *72:22 *72:5 8.76092
14 *72:21 *72:22 3.50612
15 *72:18 *626:A 2.43618
16 *72:20 *72:21 8.76092
17 *72:17 *72:18 8.76092
18 *72:19 *72:20 3.48277
19 *72:17 *72:16 19.9157
20 *72:14 *72:19 1.0714
21 *72:15 *72:16 1.07286
22 *72:15 *72:14 26.9338
*END

*D_NET *73 0.0225128

*CONN
*I *891:B I *C 1778.5 707.845 *L 0.000212 *D NAND4XL
*I *628:Y O *C 1778.33 930.77 *L 0 *D INVX3

*CAP
1 *891:B 2.26218e-05
2 *628:Y 2.26218e-05
3 *73:2 0.00499165
4 *73:3 0.00498693
5 *73:4 0.00362954
6 *73:5 0.00363419
7 *73:6 0.000879661
8 *73:7 0.000879661
9 *73:8 0.00137803
10 *73:9 0.00137803
11 *73:10 0.000123468
12 *73:11 0.000123468
13 *73:12 0.000210375
14 *73:13 2.10223e-05
15 *73:14 2.10223e-05
16 *73:15 0.000210375

*RES
1 *73:14 *891:B 8.76194
2 *73:13 *73:14 0.732856
3 *73:11 *73:13 8.76194
4 *73:11 *73:10 12.173
5 *73:9 *73:10 8.76194
6 *73:9 *73:8 98.359
7 *73:15 *73:8 8.76194
8 *73:12 *73:15 12.6256
9 *73:4 *628:Y 8.76194
10 *73:3 *73:12 8.76194
11 *73:5 *73:4 274.541
12 *73:3 *73:2 353.150482
13 *73:6 *73:5 1.07234
14 *73:7 *73:2 1.07234
15 *73:7 *73:6 65.4182
*END

*D_NET *74 0.00704749

*CONN
*I *629:Y O *C 1777.53 1003.92 *L 0 *D INVX2
*I *628:A I *C 1777.7 930.145 *L 0.0012 *D INVX3

*CAP
1 *629:Y 2.26727e-05
2 *628:A 2.26727e-05
3 *74:2 0.000283725
4 *74:3 0.000279038
5 *74:4 0.00276695
6 *74:5 0.00276695
7 *74:6 0.000325692
8 *74:7 0.000330379
9 *74:5 *197:6 5.985e-05
10 *74:4 *197:7 5.985e-05
11 *74:5 *197:7 2.88e-06
12 *74:4 *197:8 2.88e-06
13 *74:5 *197:8 1.21e-06
14 *74:4 *197:9 1.21e-06
15 *74:5 *197:10 4.814e-05
16 *74:4 *197:11 4.814e-05
17 *74:5 *197:12 6.85e-06
18 *74:4 *197:13 6.85e-06
19 *74:5 *197:14 5.77e-06
20 *74:4 *197:15 5.77000148e-06

*RES
1 *74:6 *628:A 8.76121
2 *74:6 *74:7 22.815
3 *74:4 *74:7 1.07443
4 *74:4 *74:5 217.32576
5 *74:3 *629:Y 8.76121
6 *74:2 *74:5 1.07111
7 *74:2 *74:3 19.3529
*END

*D_NET *75 0.0177064

*CONN
*I *891:C I *C 1778.7 707.845 *L 0.000211 *D NAND4XL
*I *630:Y O *C 1607.9301 702.47 *L 0 *D INVX3

*CAP
1 *891:C 2.2631e-05
2 *630:Y 2.2631e-05
3 *75:2 1.95223e-05
4 *75:3 1.95223e-05
5 *75:4 0.000253169
6 *75:5 0.000253169
7 *75:6 5.54583e-05
8 *75:7 5.65775e-05
9 *75:9 0.000221833
10 *75:10 4.47646e-05
11 *75:11 0.000221833
12 *75:12 0.00814902
13 *75:13 0.00813497
14 *75:14 3.36978e-05
15 *75:15 3.36978e-05
16 *75:16 7.29911e-05
17 *75:17 1.79058e-05
18 *75:18 7.29911e-05

*RES
1 *75:9 *630:Y 8.76403
2 *75:9 *75:11 14.7991
3 *75:10 *75:11 8.76403
4 *75:10 *75:12 2.57898
5 *75:12 *75:13 491.325592
6 *75:13 *75:14 1.29699
7 *75:14 *75:15 1.20702
8 *75:15 *75:5 1.29699
9 *75:5 *75:4 14.3568
10 *75:7 *75:4 1.31948
11 *75:7 *75:6 2.38406
12 *75:2 *75:6 8.76403
13 *75:3 *75:2 0.674733
14 *75:16 *75:3 8.76403
15 *75:16 *75:18 3.24622
16 *75:17 *891:C 8.76403
17 *75:17 *75:18 8.76403
18 *75:8 *75:17 1.0121
*END

*D_NET *76 0.021898

*CONN
*I *631:Y O *C 1393.95 702.825 *L 0 *D INVX4
*I *630:A I *C 1607.3 703.095 *L 0.0012 *D INVX3

*CAP
1 *631:Y 0.000237592
2 *630:A 2.2665e-05
3 *76:2 0.0102438
4 *76:5 0.000250566
5 *76:6 1.78194e-05
6 *76:7 0.000703866
7 *76:8 0.00956182
8 *76:9 0.000422976
9 *76:10 1.78194e-05
10 *76:11 0.000419068

*RES
1 *76:10 *630:A 8.7593
2 *76:4 *76:10 1.0246
3 *76:11 *76:10 8.7593
4 *76:9 *76:11 29.7334
5 *76:8 *76:9 1.0246
6 *76:2 *76:8 658.313965
7 *76:7 *76:2 50.376
8 *631:Y *76:5 14.3845
9 *76:6 *76:7 8.7593
10 *76:6 *76:5 8.7593
11 *76:3 *76:6 1.0246
*END

*D_NET *77 0.0209694

*CONN
*I *632:Y O *C 1179.55 702.825 *L 0 *D INVX4
*I *631:A I *C 1393.785 702.945 *L 0.00161 *D INVX4

*CAP
1 *632:Y 3.96142e-05
2 *631:A 9.90354e-06
3 *77:4 5.25045e-05
4 *77:5 1.79207e-05
5 *77:6 0.01030204
6 *77:7 0.000111926
7 *77:8 1.79207e-05
8 *77:9 0.01030204
9 *77:10 0.000102337
10 *77:11 1.32047e-05

*RES
1 *77:11 *631:A 0.602905
2 *77:10 *77:11 0.30714
3 *77:7 *77:10 5.99493
4 *77:8 *77:7 8.75919
5 *77:3 *77:8 1.0238
6 *77:9 *77:8 8.75919
7 *77:6 *77:9 745.509521
8 *632:Y *77:4 2.40025
9 *77:5 *77:6 8.75919
10 *77:5 *77:4 8.75919
11 *77:2 *77:5 1.0238
*END

*D_NET *78 0.00422517

*CONN
*I *633:Y O *C 1136.53 702.47 *L 0 *D INVX1
*I *632:A I *C 1179.385 702.945 *L 0.00161 *D INVX4

*CAP
1 *633:Y 2.26707e-05
2 *632:A 9.92014e-06
3 *78:4 1.78994e-05
4 *78:5 0.00176662
5 *78:6 0.000309923
6 *78:7 1.78994e-05
7 *78:8 0.00176662
8 *78:9 0.000300381
9 *78:10 1.32358e-05

*RES
1 *78:10 *632:A 0.598919
2 *78:9 *78:10 0.305293
3 *78:6 *78:9 17.9773
4 *78:7 *78:6 8.76016
5 *78:3 *78:7 1.02088
6 *78:8 *78:7 8.76016
7 *78:5 *78:8 127.437531
8 *78:4 *78:5 8.76016
9 *78:4 *633:Y 8.76016
10 *78:2 *78:4 1.02088
*END

*D_NET *79 0.0177089

*CONN
*I *894:A I *C 1779.5 398.905 *L 0.000212 *D NAND4XL
*I *634:Y O *C 1779.53 575.93 *L 0 *D INVX3

*CAP
1 *894:A 2.26267e-05
2 *634:Y 2.26267e-05
3 *79:2 0.0079249
4 *79:3 0.00792962
5 *79:4 0.0003152
6 *79:5 0.0003152
7 *79:6 2.38367e-05
8 *79:7 2.85556e-05
9 *79:2 *123:2 0.00054024
10 *79:3 *123:3 0.00054024
11 *79:7 *123:4 2.87e-06
12 *79:6 *123:5 2.87e-06
13 *79:5 *123:4 1.996e-05
14 *79:4 *123:5 1.99599454e-05

*RES
1 *79:2 *634:Y 8.76101
2 *79:6 *894:A 8.76101
3 *79:3 *79:2 601.846375
4 *79:6 *79:7 1.34078
5 *79:5 *79:3 1.07446
6 *79:4 *79:7 1.07446
7 *79:4 *79:5 23.6382
*END

*D_NET *80 0.0180767

*CONN
*I *635:Y O *C 1779.53 753.77 *L 0 *D INVX3
*I *634:A I *C 1778.9 576.555 *L 0.0012 *D INVX3

*CAP
1 *635:Y 2.27211e-05
2 *634:A 2.27211e-05
3 *80:2 0.00207679
4 *80:3 0.00207207
5 *80:4 0.00422548
6 *80:5 0.00423019
7 *80:6 3.89228e-05
8 *80:7 3.89228e-05
9 *80:8 4.36348e-05
10 *80:9 4.36348e-05
11 *80:10 0.00103846
12 *80:11 0.00103846
13 *80:4 *67:2 0.00040003
14 *80:5 *67:3 0.000400030004
15 *80:4 *92:8 0.00073959
16 *80:5 *92:9 0.00073959
17 *80:11 *92:2 7.529e-05
18 *80:10 *92:3 7.529e-05
19 *80:4 *92:2 2.348e-05
20 *80:5 *92:3 2.348e-05
21 *80:2 *92:2 0.00032988
22 *80:3 *92:3 0.00032988
23 *80:4 *92:10 8.93e-06
24 *80:5 *92:11 8.93e-06
25 *80:7 *92:2 1.516e-05
26 *80:6 *92:3 1.51600764e-05

*RES
1 *80:4 *635:Y 8.75886
2 *80:5 *80:4 383.960358
3 *80:5 *80:11 1.07215
4 *80:10 *80:11 81.5072
5 *80:2 *80:10 1.07215
6 *80:3 *80:2 161.438
7 *80:9 *80:3 8.75886
8 *80:8 *80:9 2.1033
9 *80:7 *80:8 8.75886
10 *80:6 *80:7 2.92938
11 *634:A *80:6 8.75886
*END

*D_NET *81 0.0222437

*CONN
*I *636:Y O *C 1779.75 976.425 *L 0 *D INVX4
*I *635:A I *C 1778.9 754.395 *L 0.0012 *D INVX3

*CAP
1 *636:Y 1.00722e-05
2 *635:A 2.6898e-05
3 *81:2 0.0011827
4 *81:3 0.0011827
5 *81:4 5.39125e-05
6 *81:5 5.86283e-05
7 *81:6 0.000863414
8 *81:7 0.000863414
9 *81:8 0.000772881
10 *81:9 0.000772881
11 *81:10 0.000541861
12 *81:11 0.000541861
13 *81:12 0.00143561
14 *81:13 0.00143561
15 *81:14 0.000910748
16 *81:15 0.000906032
17 *81:16 8.24989e-05
18 *81:17 8.24989e-05
19 *81:18 7.13205e-05
20 *81:19 7.13205e-05
21 *81:21 0.000153645
22 *81:22 0.000153645
23 *81:23 3.97066e-05
24 *81:24 1.86889e-05
25 *81:25 0.00381078
26 *81:26 0.0038155
27 *81:27 0.00116506
28 *81:28 0.0011604
29 *81:29 1.86889e-05
30 *81:30 2.28808e-05
31 *81:31 1.78738e-05

*RES
1 *81:23 *635:A 1.21599
2 *81:15 *81:23 8.7618
3 *81:15 *81:14 66.284
4 *81:14 *81:9 1.07024
5 *81:9 *81:8 57.7388
6 *81:13 *81:8 1.07024
7 *81:13 *81:12 105.945
8 *81:12 *81:17 1.0744
9 *81:17 *81:16 4.16019
10 *81:11 *81:16 1.0744
11 *81:11 *81:10 39.4531
12 *81:10 *81:3 1.0744
13 *81:3 *81:2 80.2929
14 *81:7 *81:2 1.07024
15 *81:7 *81:6 62.9442
16 *81:6 *81:5 1.07024
17 *81:5 *81:4 3.3648
18 *81:29 *81:4 8.7618
19 *81:24 *81:29 0.699612
20 *81:25 *81:24 8.7618
21 *81:25 *81:26 272.915131
22 *81:21 *81:26 1.0744
23 *81:21 *81:22 11.0689
24 *81:22 *81:27 1.0744
25 *81:27 *81:28 83.6702
26 *81:19 *81:28 8.7618
27 *81:19 *81:18 4.5558
28 *636:Y *81:30 0.607996
29 *81:31 *81:18 8.7618
30 *81:31 *81:30 8.7618
31 *81:20 *81:31 1.01194
*END

*D_NET *82 0.0216988

*CONN
*I *637:Y O *C 1781.55 1198.725 *L 0 *D INVX4
*I *636:A I *C 1779.585 976.545 *L 0.00161 *D INVX4

*CAP
1 *637:Y 2.26225e-05
2 *636:A 2.26225e-05
3 *82:2 0.00988379
4 *82:3 0.00983824
5 *82:4 3.64977e-05
6 *82:5 3.64977e-05
7 *82:6 8.70214e-05
8 *82:7 8.70214e-05
9 *82:8 6.33431e-05
10 *82:2 *94:2 0.00017845
11 *82:3 *94:3 0.00017845
12 *82:2 *94:2 0.00020546
13 *82:3 *94:3 0.00020546
14 *82:2 *94:6 2.119e-05
15 *82:3 *94:4 2.11899795e-05
16 *82:2 *243:3 0.00040545
17 *82:3 *243:4 0.000405449998

*RES
1 *82:8 *637:Y 8.76133
2 *82:2 *82:8 4.29053
3 *82:3 *82:2 787.630615
4 *82:7 *82:3 8.76133
5 *82:6 *82:7 4.21842
6 *82:4 *82:6 8.76133
7 *82:5 *82:4 1.82678
8 *636:A *82:5 8.76133
*END

*D_NET *83 0.0180324

*CONN
*I *895:A I *C 1777.5 461.415 *L 0.000212 *D NAND4XL
*I *638:Y O *C 1779.73 640.07 *L 0 *D INVX3

*CAP
1 *895:A 2.26684e-05
2 *638:Y 3.43254e-05
3 *83:2 4.5185e-05
4 *83:3 4.05146e-05
5 *83:4 4.71594e-05
6 *83:5 2.65794e-05
7 *83:6 2.65794e-05
8 *83:7 0.0024884
9 *83:8 0.0024884
10 *83:9 0.00236898
11 *83:10 0.00237365
12 *83:11 0.00211697
13 *83:12 0.00211697
14 *83:15 1.78841e-05
15 *83:16 0.000186701
16 *83:17 1.78841e-05
17 *83:18 0.000186701
18 *83:19 5.39941e-05
19 *83:20 5.39941e-05
20 *83:11 *92:2 0.00040144
21 *83:12 *92:3 0.000401440011
22 *83:11 *111:27 2.87e-06
23 *83:12 *111:26 2.87e-06
24 *83:11 *111:12 0.0001857
25 *83:12 *111:13 0.0001857
26 *83:7 *111:32 1.827e-05
27 *83:8 *111:31 1.827e-05
28 *83:7 *111:30 4.834e-05
29 *83:8 *111:29 4.834e-05
30 *83:7 *111:27 2.04e-06
31 *83:8 *111:26 2.04e-06
32 *83:7 *111:18 1.111e-05
33 *83:8 *111:19 1.111e-05
34 *83:7 *111:2 0.00028173
35 *83:8 *111:3 0.00028173
36 *83:7 *111:4 1.686e-05
37 *83:8 *111:5 1.686e-05
38 *83:7 *111:6 1.124e-05
39 *83:8 *111:7 1.12399998e-05
40 *83:5 *119:18 3.92e-06
41 *83:6 *119:17 3.92e-06
42 *83:7 *119:14 0.00041436
43 *83:8 *119:13 0.00041436
44 *83:9 *119:2 0.00010177
45 *83:10 *119:3 0.00010177
46 *83:5 *119:2 7.83e-06
47 *83:6 *119:3 7.83e-06
48 *83:2 *119:18 5.75e-06
49 *83:3 *119:17 5.75e-06
50 *83:7 *119:6 1.57e-05
51 *83:8 *119:7 1.57e-05
52 *83:9 *119:8 0.00013045
53 *83:10 *119:9 0.000130450013

*RES
1 *83:4 *638:Y 2.24956
2 *83:11 *83:4 8.76106
3 *83:12 *83:11 195.317
4 *83:20 *83:12 8.76106
5 *83:3 *895:A 8.76106
6 *83:19 *83:20 2.8041
7 *83:3 *83:2 2.69249
8 *83:7 *83:19 8.76106
9 *83:2 *83:6 1.07072
10 *83:8 *83:7 228.568771
11 *83:6 *83:5 2.52159
12 *83:14 *83:17 1.01492
13 *83:17 *83:8 8.76106
14 *83:5 *83:10 1.07072
15 *83:18 *83:17 8.76106
16 *83:10 *83:9 187.665
17 *83:16 *83:18 12.6812
18 *83:15 *83:9 8.76106
19 *83:15 *83:16 8.76106
20 *83:13 *83:15 1.01492
*END

*D_NET *84 0.0222126

*CONN
*I *639:Y O *C 1780.13 846.11 *L 0 *D INVX3
*I *638:A I *C 1779.1 639.445 *L 0.0012 *D INVX3

*CAP
1 *639:Y 2.26695e-05
2 *638:A 2.50262e-05
3 *84:2 3.90543e-05
4 *84:3 3.07497e-05
5 *84:4 0.000331513
6 *84:5 0.000336226
7 *84:6 0.000187865
8 *84:7 9.0229e-05
9 *84:8 0.000183039
10 *84:9 0.000255537
11 *84:10 0.000255537
12 *84:11 9.0229e-05
13 *84:12 0.00734996
14 *84:13 0.00735467
15 *84:14 6.82328e-05
16 *84:15 6.34072e-05
17 *84:13 *142:4 0.00130133
18 *84:12 *142:5 0.00130132995
19 *84:13 *67:2 0.00107477
20 *84:12 *67:3 0.00107477
21 *84:13 *72:2 0.00019478
22 *84:12 *72:3 0.00019478
23 *84:13 *72:4 0.00013385
24 *84:12 *72:5 0.00013385
25 *84:13 *72:6 4.81e-06
26 *84:12 *72:7 4.81e-06
27 *84:13 *72:8 5.042e-05
28 *84:12 *72:9 5.042e-05
29 *84:13 *72:10 2.73e-06
30 *84:12 *72:11 2.73e-06
31 *84:13 *72:12 1.82e-06
32 *84:12 *72:13 1.81998991e-06

*RES
1 *84:15 *639:Y 8.7571
2 *84:14 *84:15 3.6479
3 *84:10 *84:14 1.0773
4 *84:9 *84:10 16.1809
5 *84:9 *84:13 1.0773
6 *84:12 *84:13 699.032227
7 *84:11 *84:12 8.7571
8 *84:7 *84:11 3.63724
9 *84:8 *84:7 8.7571
10 *84:6 *84:8 11.061
11 *84:5 *84:6 1.0773
12 *84:4 *84:5 22.2394
13 *84:3 *84:4 8.7571
14 *84:2 *638:A 1.35463
15 *84:2 *84:3 1.31197
*END

*D_NET *85 0.0195184

*CONN
*I *640:Y O *C 1779.95 1041.405 *L 0 *D INVX4
*I *639:A I *C 1779.5 846.735 *L 0.0012 *D INVX3

*CAP
1 *640:Y 7.68142e-05
2 *639:A 9.87939e-06
3 *85:2 0.000593912
4 *85:3 0.000593912
5 *85:4 2.6728e-05
6 *85:5 3.13996e-05
7 *85:6 0.000821062
8 *85:7 0.000821062
9 *85:8 0.00501896
10 *85:9 0.00501429
11 *85:10 0.000694085
12 *85:11 0.000694085
13 *85:13 2.2669e-05
14 *85:14 1.79208e-05
15 *85:15 0.00011526
16 *85:16 0.00011526
17 *85:17 8.97569e-05
18 *85:18 0.00083814
19 *85:19 0.00083814
20 *85:20 0.00096527
21 *85:21 0.00096527
22 *85:21 *186:28 7.131e-05
23 *85:20 *186:29 7.131e-05
24 *85:6 *186:28 4.12e-06
25 *85:7 *186:29 4.12e-06
26 *85:10 *186:28 9.891e-05
27 *85:11 *186:29 9.891e-05
28 *85:19 *186:30 6.011e-05
29 *85:18 *186:31 6.011e-05
30 *85:8 *186:30 8.58e-06
31 *85:9 *186:31 8.58e-06
32 *85:8 *186:32 0.00032329
33 *85:9 *186:33 0.00032329
34 *85:10 *186:26 1.09e-05
35 *85:11 *186:27 1.08999835e-05

*RES
1 *640:Y *85:17 4.26323
2 *85:4 *85:17 8.76134
3 *85:5 *85:4 1.33886
4 *85:5 *85:2 1.06874
5 *85:3 *85:2 42.3856
6 *85:6 *85:3 1.06874
7 *85:7 *85:6 60.5601
8 *85:7 *85:21 1.06874
9 *85:20 *85:21 76.2037
10 *85:10 *85:20 1.06874
11 *85:11 *85:10 62.7622
12 *85:11 *85:19 1.07462
13 *85:18 *85:19 65.3636
14 *85:8 *85:18 1.07462
15 *85:9 *85:8 384.841431
16 *85:16 *85:9 8.76134
17 *85:13 *639:A 0.616583
18 *85:15 *85:16 6.3185
19 *85:14 *85:13 8.76134
20 *85:14 *85:15 8.76134
21 *85:12 *85:14 1.01589
*END

*D_NET *86 0.0221694

*CONN
*I *641:Y O *C 1781.15 1263.705 *L 0 *D INVX4
*I *640:A I *C 1779.785 1041.525 *L 0.00161 *D INVX4

*CAP
1 *641:Y 2.26898e-05
2 *640:A 9.84653e-06
3 *86:2 2.67997e-05
4 *86:3 3.14233e-05
5 *86:4 3.14233e-05
6 *86:5 2.67997e-05
7 *86:6 0.000147527
8 *86:7 0.000147527
9 *86:8 0.00213182
10 *86:9 0.00213182
11 *86:10 0.000644734
12 *86:11 0.000644734
13 *86:12 0.00561124
14 *86:13 0.00561124
15 *86:14 0.000978403
16 *86:15 0.000978403
17 *86:16 2.86834e-05
18 *86:17 2.38885e-05
19 *86:18 2.26898e-05
20 *86:19 0.000142218
21 *86:20 1.68675e-05
22 *86:21 1.68675e-05
23 *86:22 0.000349509
24 *86:23 0.0003448
25 *86:24 0.000142218
26 *86:8 *172:7 0.00017557
27 *86:9 *172:8 0.00017557
28 *86:12 *172:9 0.00014486
29 *86:13 *172:10 0.00014486
30 *86:12 *172:11 0.00016779
31 *86:13 *172:12 0.00016779
32 *86:12 *172:13 2.255e-05
33 *86:13 *172:14 2.255e-05
34 *86:12 *172:14 2.3e-06
35 *86:13 *172:15 2.3e-06
36 *86:12 *172:16 1.286e-05
37 *86:13 *172:17 1.286e-05
38 *86:12 *172:17 1.042e-05
39 *86:13 *172:18 1.042e-05
40 *86:23 *172:9 1.96e-05
41 *86:22 *172:10 1.95999959e-05
42 *86:8 *94:2 0.00017557
43 *86:9 *94:3 0.00017557
44 *86:10 *94:2 4.606e-05
45 *86:11 *94:3 4.606e-05
46 *86:12 *94:2 2.87e-06
47 *86:13 *94:3 2.87e-06
48 *86:14 *94:2 0.00016934
49 *86:15 *94:3 0.00016934
50 *86:16 *94:2 2.87e-06
51 *86:17 *94:3 2.86999508e-06

*RES
1 *86:23 *641:Y 8.76056
2 *86:22 *86:23 25.5472
3 *86:22 *86:12 1.06884
4 *86:13 *86:12 429.739319
5 *86:13 *86:8 1.06884
6 *86:9 *86:8 183.749
7 *86:14 *86:9 1.0754
8 *86:15 *86:14 85.3236
9 *86:15 *86:10 1.0754
10 *86:11 *86:10 49.8224
11 *86:16 *86:11 1.06884
12 *86:17 *86:16 1.33769
13 *86:20 *640:A 0.609829
14 *86:24 *86:17 8.76056
15 *86:20 *86:21 0.65573
16 *86:19 *86:24 7.31139
17 *86:18 *86:21 0.609829
18 *86:2 *86:19 8.76056
19 *86:5 *86:18 8.76056
20 *86:3 *86:2 1.33769
21 *86:5 *86:4 1.33769
22 *86:6 *86:3 1.06884
23 *86:7 *86:4 1.06884
24 *86:7 *86:6 8.7081
*END

*D_NET *87 0.0305778

*CONN
*I *890:B I *C 1779.7 646.285 *L 0.000212 *D NAND4XL
*I *642:Y O *C 1779.5649 952.895 *L 0 *D CLKINVX6

*CAP
1 *890:B 2.26043e-05
2 *642:Y 2.26043e-05
3 *87:2 1.89511e-05
4 *87:3 1.89511e-05
5 *87:4 0.01496334
6 *87:5 0.0110521
7 *87:6 0.00393839
8 *87:7 0.000140649
9 *87:8 0.000145215
10 *87:10 1.78094e-05
11 *87:11 1.87227e-05
12 *87:12 1.87227e-05
13 *87:13 3.2194e-05
14 *87:14 6.53012e-05
15 *87:15 6.98677e-05
16 *87:16 3.2194e-05

*RES
1 *87:2 *890:B 8.76646
2 *87:3 *87:2 0.730539
3 *87:16 *87:3 8.76646
4 *87:13 *87:16 1.4012
5 *87:14 *87:13 8.76646
6 *87:14 *87:15 7.83233
7 *87:5 *87:15 1.06587
8 *87:4 *87:6 281.796
9 *87:5 *87:4 784.861877
10 *87:8 *87:6 1.07784
11 *87:8 *87:7 9.43712
12 *87:12 *87:7 8.76646
13 *87:11 *87:12 0.706586
14 *87:10 *87:11 8.76646
15 *87:10 *642:Y 8.76646
16 *87:9 *87:10 1.01796
*END

*D_NET *88 0.0219493

*CONN
*I *643:Y O *C 1780.15 1180.075 *L 0 *D INVX4
*I *642:A I *C 1778.7 952.755 *L 0.00241 *D CLKINVX6

*CAP
1 *643:Y 2.26487e-05
2 *642:A 2.26487e-05
3 *88:2 0.00539739
4 *88:3 0.0053838
5 *88:4 0.000380086
6 *88:5 0.00039837
7 *88:6 0.000111843
8 *88:7 0.000116455
9 *88:8 7.03345e-05
10 *88:9 7.03345e-05
11 *88:10 0.000993495
12 *88:11 0.000993495
13 *88:12 0.000214463
14 *88:13 0.000214463
15 *88:14 0.000772032
16 *88:15 0.000772032
17 *88:16 0.00185999
18 *88:17 0.00185999
19 *88:18 0.000192226
20 *88:19 0.000192226
21 *88:2 *143:2 2.87e-06
22 *88:3 *143:3 2.87e-06
23 *88:19 *143:2 2.719e-05
24 *88:18 *143:3 2.719e-05
25 *88:17 *143:2 0.00031541
26 *88:16 *143:3 0.00031541
27 *88:15 *143:4 2.911e-05
28 *88:14 *143:5 2.911e-05
29 *88:15 *143:6 5.534e-05
30 *88:14 *143:7 5.534e-05
31 *88:13 *143:2 1.187e-05
32 *88:12 *143:3 1.187e-05
33 *88:11 *143:2 7.406e-05
34 *88:10 *143:3 7.406e-05
35 *88:9 *143:8 1.44e-06
36 *88:8 *143:9 1.44000352e-06
37 *88:2 *144:5 3.25e-06
38 *88:3 *144:4 3.25e-06
39 *88:4 *144:3 2.173e-05
40 *88:5 *144:2 2.173e-05
41 *88:2 *144:3 0.00041326
42 *88:3 *144:2 0.000413260013

*RES
1 *88:4 *643:Y 8.7632
2 *88:5 *88:4 28.2722
3 *88:2 *88:5 2.14124
4 *88:3 *88:2 433.111084
5 *88:13 *88:3 1.07062
6 *88:12 *88:13 14.7375
7 *88:12 *88:19 1.07062
8 *88:18 *88:19 14.1163
9 *88:11 *88:18 1.07062
10 *88:10 *88:11 78.3996
11 *88:10 *88:17 1.07062
12 *88:16 *88:17 154.896
13 *88:9 *88:16 1.07062
14 *88:8 *88:9 9.61573
15 *88:8 *88:15 1.07062
16 *88:14 *88:15 60.6419
17 *88:7 *88:14 1.07062
18 *88:6 *88:7 13.6471
19 *642:A *88:6 8.7632
*END

*D_NET *89 0.0208783

*CONN
*I *644:Y O *C 1780.15 1402.375 *L 0 *D INVX4
*I *643:A I *C 1779.985 1179.955 *L 0.00161 *D INVX4

*CAP
1 *644:Y 2.27232e-05
2 *643:A 2.27232e-05
3 *89:2 0.00886406
4 *89:3 0.00886406
5 *89:4 0.000928809
6 *89:5 0.000928809
7 *89:6 2.44815e-05
8 *89:7 1.98828e-05
9 *89:8 0.000390216
10 *89:9 0.000385617
11 *89:2 *102:2 0.00013393
12 *89:3 *102:3 0.00013393
13 *89:2 *102:4 5.634e-05
14 *89:3 *102:5 5.634e-05
15 *89:2 *102:6 2.324e-05
16 *89:3 *102:7 2.32399882e-05

*RES
1 *89:9 *644:Y 8.75575
2 *89:8 *89:9 27.3343
3 *89:8 *89:2 1.06701
4 *89:3 *89:2 685.564026
5 *89:4 *89:3 1.07747
6 *89:5 *89:4 68.2049
7 *89:6 *89:5 1.07747
8 *89:7 *89:6 0.847331
9 *643:A *89:7 8.75575
*END

*D_NET *90 0.00432331

*CONN
*I *645:Y O *C 1780.53 1447.1899 *L 0 *D INVX1
*I *644:A I *C 1779.985 1402.255 *L 0.00161 *D INVX4

*CAP
1 *645:Y 4.0135e-05
2 *644:A 2.26727e-05
3 *90:2 0.00041337
4 *90:3 0.000431658
5 *90:4 0.00169039
6 *90:5 5.29803e-05
7 *90:6 0.0016721

*RES
1 *90:5 *645:Y 2.45075
2 *90:6 *90:5 8.76032
3 *90:4 *90:6 125.380325
4 *90:3 *90:4 2.14082
5 *90:2 *90:3 29.5046
6 *644:A *90:2 8.76032
*END

*D_NET *91 0.022466

*CONN
*I *893:A I *C 1776.5 333.925 *L 0.000212 *D NAND4XL
*I *646:Y O *C 1779.015 555.59 *L 0 *D CLKINVX4

*CAP
1 *893:A 2.00706e-05
2 *646:Y 2.26787e-05
3 *91:2 0.000187326
4 *91:3 0.000187326
5 *91:4 0.00743123
6 *91:5 0.000162493
7 *91:6 0.00742658
8 *91:7 3.29974e-05
9 *91:8 2.24519e-05
10 *91:9 2.7101e-05
11 *91:10 4.89859e-05
12 *91:11 4.89859e-05
13 *91:12 0.000162493
14 *91:13 2.67608e-05
15 *91:14 3.15233e-05
16 *91:15 5.86243e-05
17 *91:16 5.86243e-05
18 *91:17 0.000786269
19 *91:18 0.000786269
20 *91:19 0.00203155
21 *91:20 0.00202691
22 *91:11 *141:6 2.3e-06
23 *91:10 *141:7 2.3e-06
24 *91:9 *141:8 1.07e-06
25 *91:8 *141:9 1.07e-06
26 *91:6 *141:10 5.452e-05
27 *91:4 *141:11 5.452e-05
28 *91:6 *141:6 0.00032139
29 *91:4 *141:7 0.00032139
30 *91:6 *141:4 5.364e-05
31 *91:4 *141:5 5.364e-05
32 *91:3 *141:8 6.4e-06
33 *91:2 *141:9 6.40002111e-06

*RES
1 *91:20 *646:Y 8.76435
2 *91:19 *91:20 150.258
3 *91:16 *91:19 1.06903
4 *91:15 *91:16 3.36829
5 *91:15 *91:18 1.06903
6 *91:17 *91:18 56.5653
7 *91:14 *91:17 1.06903
8 *91:13 *91:14 1.34901
9 *91:12 *91:13 8.76435
10 *91:5 *91:12 8.5183
11 *91:6 *91:5 8.76435
12 *91:4 *91:6 556.031311
13 *91:7 *893:A 1.21326
14 *91:4 *91:11 1.06903
15 *91:8 *91:7 8.76435
16 *91:10 *91:11 2.68106
17 *91:8 *91:9 1.49325
18 *91:3 *91:10 1.06903
19 *91:2 *91:9 1.06903
20 *91:2 *91:3 11.5472
*END

*D_NET *92 0.0224654

*CONN
*I *647:Y O *C 1780.35 773.095 *L 0 *D INVX4
*I *646:A I *C 1778.5 555.845 *L 0.00161 *D CLKINVX4

*CAP
1 *647:Y 2.269e-05
2 *646:A 2.269e-05
3 *92:2 0.00382129
4 *92:3 0.00382129
5 *92:4 0.000254777
6 *92:5 0.000254777
7 *92:6 3.1622e-05
8 *92:7 2.69399e-05
9 *92:8 0.00471593
10 *92:9 0.00472061
11 *92:10 0.000158902
12 *92:11 0.000158902
13 *92:13 4.86936e-05
14 *92:14 1.79359e-05
15 *92:15 4.86936e-05
16 *92:8 *80:4 0.00073959
17 *92:9 *80:5 0.00073959
18 *92:2 *80:11 7.529e-05
19 *92:3 *80:10 7.529e-05
20 *92:2 *80:4 2.348e-05
21 *92:3 *80:5 2.348e-05
22 *92:2 *80:2 0.00032988
23 *92:3 *80:3 0.00032988
24 *92:10 *80:4 8.93e-06
25 *92:11 *80:5 8.93e-06
26 *92:2 *80:7 1.516e-05
27 *92:3 *80:6 1.51600764e-05
28 *92:8 *71:14 0.0002279
29 *92:9 *71:15 0.0002279
30 *92:8 *71:18 0.00034741
31 *92:9 *71:19 0.00034741
32 *92:8 *71:16 6.9e-07
33 *92:9 *71:17 6.89975603e-07
34 *92:2 *83:11 0.00040144
35 *92:3 *83:12 0.000401440011

*RES
1 *92:7 *646:A 8.76083
2 *92:7 *92:6 1.34782
3 *92:6 *92:5 1.07302
4 *92:5 *92:4 16.8281
5 *92:4 *92:3 1.07302
6 *92:3 *92:2 314.866
7 *92:11 *92:2 1.07302
8 *92:11 *92:10 10.7826
9 *92:10 *92:9 1.07302
10 *92:9 *92:8 428.789978
11 *92:13 *92:8 8.76083
12 *92:13 *92:15 4.966
13 *92:14 *92:15 8.76083
14 *92:14 *647:Y 8.76083
15 *92:12 *92:14 1.01414
*END

*D_NET *93 0.0249354

*CONN
*I *648:Y O *C 1780.75 1017.465 *L 0 *D INVX4
*I *647:A I *C 1780.1851 772.975 *L 0.00161 *D INVX4

*CAP
1 *648:Y 2.26786e-05
2 *647:A 2.26786e-05
3 *93:2 2.243e-05
4 *93:3 2.243e-05
5 *93:4 2.05401e-05
6 *93:5 2.05401e-05
7 *93:6 0.00209424
8 *93:7 0.00209424
9 *93:8 0.00184567
10 *93:9 0.00184567
11 *93:10 0.000258169
12 *93:11 0.000258169
13 *93:12 0.0026262
14 *93:13 0.0026262
15 *93:14 0.00129179
16 *93:15 0.00129179
17 *93:16 0.000266325
18 *93:17 0.00026165
19 *93:19 0.00325931
20 *93:20 4.05331e-05
21 *93:21 0.00325464
22 *93:22 0.000715571
23 *93:23 0.000715571
24 *93:24 1.79042e-05
25 *93:25 4.05331e-05

*RES
1 *93:3 *647:A 8.76093
2 *93:3 *93:2 0.925046
3 *93:5 *93:2 8.76093
4 *93:5 *93:4 0.705601
5 *93:17 *93:4 8.76093
6 *93:17 *93:16 18.1633
7 *93:16 *93:13 1.07022
8 *93:13 *93:12 189.185
9 *93:15 *93:12 1.07359
10 *93:15 *93:14 84.51
11 *93:14 *93:9 1.07022
12 *93:9 *93:8 133.963
13 *93:11 *93:8 1.07022
14 *93:11 *93:10 18.5144
15 *93:10 *93:7 1.07022
16 *93:7 *93:6 149.675
17 *93:6 *93:22 1.07359
18 *93:22 *93:23 49.8579
19 *93:19 *93:23 1.07359
20 *93:19 *93:21 221.254745
21 *93:20 *93:21 8.76093
22 *93:20 *93:25 2.1033
23 *93:24 *93:25 8.76093
24 *93:24 *648:Y 8.76093
25 *93:18 *93:24 1.01282
*END

*D_NET *94 0.0116299

*CONN
*I *649:Y O *C 1780.9301 1135.48 *L 0 *D INVX2
*I *648:A I *C 1780.585 1017.585 *L 0.00161 *D INVX4

*CAP
1 *649:Y 2.27057e-05
2 *648:A 2.27057e-05
3 *94:2 0.00487875
4 *94:3 0.00487875
5 *94:4 4.98037e-05
6 *94:5 6.18638e-05
7 *94:6 4.98037e-05
8 *94:7 6.18638e-05
9 *94:2 *86:8 0.00017557
10 *94:3 *86:9 0.00017557
11 *94:2 *86:10 4.606e-05
12 *94:3 *86:11 4.606e-05
13 *94:2 *86:12 2.87e-06
14 *94:3 *86:13 2.87e-06
15 *94:2 *86:14 0.00016934
16 *94:3 *86:15 0.00016934
17 *94:2 *86:16 2.87e-06
18 *94:3 *86:17 2.86999508e-06
19 *94:2 *82:2 0.00017845
20 *94:3 *82:3 0.00017845
21 *94:2 *82:2 0.00020546
22 *94:3 *82:3 0.00020546
23 *94:6 *82:2 2.119e-05
24 *94:4 *82:3 2.11899795e-05

*RES
1 *94:2 *649:Y 8.76048
2 *94:3 *94:2 413.636108
3 *94:7 *94:3 8.76048
4 *94:5 *94:7 2.41734
5 *94:6 *94:5 8.76048
6 *94:4 *94:6 4.02048
7 *648:A *94:4 8.76048
*END

*D_NET *95 0.0175615

*CONN
*I *896:B I *C 1776.9 272.175 *L 0.000212 *D NAND4XL
*I *650:Y O *C 1782.33 449.39 *L 0 *D INVX3

*CAP
1 *896:B 2.26696e-05
2 *650:Y 2.26696e-05
3 *95:2 0.00483452
4 *95:3 0.00483925
5 *95:4 2.23004e-05
6 *95:5 5.02127e-05
7 *95:6 2.23004e-05
8 *95:7 5.02127e-05
9 *95:8 3.30813e-05
10 *95:9 3.78072e-05
11 *95:10 0.00262996
12 *95:11 0.00262996
13 *95:12 0.000260589
14 *95:13 7.39899e-05
15 *95:14 7.39899e-05
16 *95:15 8.78722e-05
17 *95:16 8.78722e-05
18 *95:17 0.000260589
19 *95:18 0.000254608
20 *95:19 0.000254608
21 *95:9 *141:16 1.6e-06
22 *95:8 *141:17 1.6e-06
23 *95:11 *141:18 4.5e-06
24 *95:10 *141:19 4.5e-06
25 *95:6 *141:16 7.83e-06
26 *95:4 *141:17 7.83e-06
27 *95:2 *141:6 0.00032035
28 *95:3 *141:7 0.00032035
29 *95:11 *141:20 1.21e-06
30 *95:10 *141:21 1.21e-06
31 *95:11 *141:2 0.00017067
32 *95:10 *141:3 0.000170670012

*RES
1 *95:19 *650:Y 8.75891
2 *95:18 *95:19 17.341
3 *95:17 *95:18 8.75891
4 *95:12 *95:17 14.606
5 *95:2 *95:12 8.75891
6 *95:3 *95:2 386.288086
7 *95:3 *95:16 1.07276
8 *95:15 *95:16 5.54063
9 *95:11 *95:15 1.07276
10 *95:10 *95:11 210.084
11 *95:10 *95:14 1.10813
12 *95:13 *95:14 4.851
13 *95:9 *95:13 1.10813
14 *95:8 *95:9 1.39105
15 *95:7 *95:8 8.75891
16 *95:5 *95:7 1.8626
17 *95:6 *95:5 8.75891
18 *95:4 *95:6 1.50304
19 *896:B *95:4 8.75891
*END

*D_NET *96 0.0169297

*CONN
*I *651:Y O *C 1782.33 630.65 *L 0 *D INVX3
*I *650:A I *C 1781.7 450.015 *L 0.0012 *D INVX3

*CAP
1 *651:Y 2.2588e-05
2 *650:A 2.2588e-05
3 *96:2 0.000341115
4 *96:3 0.000345947
5 *96:4 0.00791607
6 *96:5 0.00791136
7 *96:5 *199:9 0.00016536
8 *96:4 *199:10 0.00016536
9 *96:3 *199:9 1.96e-05
10 *96:2 *199:10 1.95999904e-05

*RES
1 *96:5 *651:Y 8.76223
2 *96:4 *96:5 611.545837
3 *96:3 *96:4 1.07312
4 *96:2 *96:3 25.4562
5 *650:A *96:2 8.76223
*END

*D_NET *97 0.0214666

*CONN
*I *652:Y O *C 1782.55 855.175 *L 0 *D INVX4
*I *651:A I *C 1781.7 631.275 *L 0.0012 *D INVX3

*CAP
1 *652:Y 2.27011e-05
2 *651:A 2.27011e-05
3 *97:2 0.000329506
4 *97:3 0.000334128
5 *97:4 5.63451e-05
6 *97:5 0.000595871
7 *97:6 0.00119766
8 *97:7 0.00119766
9 *97:8 3.84016e-05
10 *97:9 3.84016e-05
11 *97:10 0.000566781
12 *97:11 9.95044e-05
13 *97:12 0.000117788
14 *97:13 0.00028893
15 *97:14 0.00028893
16 *97:15 0.00253641
17 *97:16 0.00252282
18 *97:17 0.00445425
19 *97:18 0.00445425
20 *97:19 7.27932e-05
21 *97:20 7.27932e-05
22 *97:2 *100:2 2.308e-05
23 *97:3 *100:3 2.308e-05
24 *97:20 *100:2 4.36e-06
25 *97:19 *100:3 4.36e-06
26 *97:6 *100:2 9.574e-05
27 *97:7 *100:3 9.574e-05
28 *97:4 *100:2 3.64e-06
29 *97:5 *100:3 3.64e-06
30 *97:5 *100:2 3.721e-05
31 *97:10 *100:3 3.721e-05
32 *97:18 *100:2 0.00031715
33 *97:17 *100:3 0.000317150007
34 *97:2 *70:9 2.308e-05
35 *97:3 *70:8 2.308e-05
36 *97:4 *70:9 7.18e-06
37 *97:5 *70:8 7.18e-06
38 *97:6 *70:7 9.55e-05
39 *97:7 *70:6 9.55e-05
40 *97:8 *70:7 6.59e-06
41 *97:9 *70:6 6.59e-06
42 *97:5 *70:5 4.262e-05
43 *97:10 *70:4 4.26200031e-05
44 *97:18 *124:2 0.00019889
45 *97:17 *124:3 0.00019889
46 *97:18 *124:2 3.38e-05
47 *97:17 *124:3 3.38e-05
48 *97:16 *124:2 0.00016764
49 *97:15 *124:3 0.00016764
50 *97:14 *124:2 1.522e-05
51 *97:13 *124:3 1.522e-05
52 *97:12 *124:2 7.25e-06
53 *97:11 *124:3 7.24999604e-06

*RES
1 *97:2 *652:Y 8.76207
2 *97:3 *97:2 26.2747
3 *97:4 *97:3 1.0722
4 *97:5 *97:4 4.04093
5 *97:10 *97:5 46.5255
6 *97:10 *97:20 1.0722
7 *97:19 *97:20 4.69809
8 *97:8 *97:19 1.0722
9 *97:9 *97:8 3.98905
10 *97:9 *97:6 1.0722
11 *97:7 *97:6 101.819
12 *97:18 *97:7 1.0722
13 *97:17 *97:18 377.783691
14 *97:14 *97:17 1.0722
15 *97:13 *97:14 21.0693
16 *97:13 *97:16 1.0722
17 *97:15 *97:16 200.179
18 *97:12 *97:15 2.1444
19 *97:11 *97:12 7.41317
20 *651:A *97:11 8.76207
*END

*D_NET *98 0.0215245

*CONN
*I *653:Y O *C 1782.55 1079.025 *L 0 *D INVX4
*I *652:A I *C 1782.385 855.055 *L 0.00161 *D INVX4

*CAP
1 *653:Y 2.27141e-05
2 *652:A 9.93028e-06
3 *98:2 0.00317255
4 *98:3 0.00321832
5 *98:4 0.00748024
6 *98:5 0.00743436
7 *98:7 2.28282e-05
8 *98:8 1.79202e-05
9 *98:9 5.93534e-05
10 *98:10 1.35828e-05
11 *98:11 1.36969e-05
12 *98:12 5.93534e-05

*RES
1 *98:2 *653:Y 8.76107
2 *98:3 *98:2 235.996
3 *98:4 *98:3 4.01584
4 *98:10 *652:A 0.612017
5 *98:5 *98:4 549.440552
6 *98:10 *98:11 0.343736
7 *98:12 *98:5 8.76107
8 *98:7 *98:11 0.612017
9 *98:9 *98:12 3.50443
10 *98:8 *98:7 8.76107
11 *98:8 *98:9 8.76107
12 *98:6 *98:8 0.217979
*END

*D_NET *99 0.0183346

*CONN
*I *892:A I *C 1777.5 518.605 *L 0.000212 *D NAND4XL
*I *654:Y O *C 1782.53 695.63 *L 0 *D INVX3

*CAP
1 *892:A 2.09133e-05
2 *654:Y 2.26761e-05
3 *99:2 0.00525117
4 *99:3 0.00524652
5 *99:4 0.000291745
6 *99:5 0.000296473
7 *99:6 0.00289061
8 *99:7 0.00289061
9 *99:8 3.37338e-05
10 *99:9 0.000302883
11 *99:10 0.000302883
12 *99:6 *119:14 0.00039222
13 *99:7 *119:13 0.000392219988

*RES
1 *99:4 *654:Y 8.76188
2 *99:5 *99:4 20.1355
3 *99:5 *99:2 1.07116
4 *99:3 *99:2 394.381042
5 *99:10 *99:3 8.76188
6 *99:9 *99:10 19.642
7 *99:6 *99:9 8.76188
8 *99:7 *99:6 212.205
9 *99:8 *892:A 1.22763
10 *99:8 *99:7 8.76188
*END

*D_NET *100 0.0304802

*CONN
*I *655:Y O *C 1782.365 1012.085 *L 0 *D CLKINVX6
*I *654:A I *C 1781.9 696.255 *L 0.0012 *D INVX3

*CAP
1 *655:Y 2.27113e-05
2 *654:A 2.27113e-05
3 *100:2 0.00870402
4 *100:3 0.00870402
5 *100:4 4.70165e-05
6 *100:5 4.70165e-05
7 *100:6 0.0058481
8 *100:7 0.0058481
9 *100:10 1.793e-05
10 *100:11 6.00323e-05
11 *100:12 5.92354e-05
12 *100:13 1.793e-05
13 *100:14 6.00323e-05
14 *100:15 5.92354e-05
15 *100:2 *97:2 2.308e-05
16 *100:3 *97:3 2.308e-05
17 *100:2 *97:20 4.36e-06
18 *100:3 *97:19 4.36e-06
19 *100:2 *97:6 9.574e-05
20 *100:3 *97:7 9.574e-05
21 *100:2 *97:4 3.64e-06
22 *100:3 *97:5 3.64e-06
23 *100:2 *97:5 3.721e-05
24 *100:3 *97:10 3.721e-05
25 *100:2 *97:18 0.00031715
26 *100:3 *97:17 0.000317150007

*RES
1 *100:4 *655:Y 8.75959
2 *100:5 *100:4 2.69445
3 *100:9 *100:13 1.01438
4 *100:13 *100:5 8.75959
5 *100:6 *100:13 8.75959
6 *100:7 *100:6 420.313
7 *100:12 *100:7 8.75959
8 *100:12 *100:15 3.50806
9 *100:2 *100:15 8.75959
10 *100:3 *100:2 692.483521
11 *100:14 *100:3 8.75959
12 *100:11 *100:14 3.50806
13 *100:10 *654:A 8.75959
14 *100:10 *100:11 8.75959
15 *100:8 *100:10 1.01438
*END

*D_NET *101 0.0220764

*CONN
*I *656:Y O *C 1781.75 1236.345 *L 0 *D INVX4
*I *655:A I *C 1781.5 1012.225 *L 0.00241 *D CLKINVX6

*CAP
1 *656:Y 7.18213e-05
2 *655:A 2.26376e-05
3 *101:2 0.00533652
4 *101:3 0.00533188
5 *101:4 0.00425293
6 *101:5 0.00425765
7 *101:6 0.000787266
8 *101:7 8.31401e-05
9 *101:8 0.000787266
10 *101:9 7.972e-05
11 *101:10 7.972e-05
12 *101:11 8.31401e-05
13 *101:12 8.46058e-05
14 *101:2 *172:25 2.43e-06
15 *101:3 *172:26 2.43e-06
16 *101:4 *172:9 8.427e-05
17 *101:5 *172:10 8.427e-05
18 *101:4 *172:11 0.00016084
19 *101:5 *172:12 0.00016084
20 *101:2 *172:7 0.00015642
21 *101:3 *172:8 0.00015642
22 *101:10 *172:16 5.03e-06
23 *101:9 *172:17 5.02997071e-06

*RES
1 *101:6 *655:A 8.76233
2 *101:6 *101:8 57.1892
3 *101:7 *101:8 8.76233
4 *101:7 *101:11 3.62496
5 *101:3 *101:11 8.76233
6 *101:3 *101:2 393.320587
7 *101:9 *101:2 1.06828
8 *101:9 *101:10 6.3797
9 *101:10 *101:5 1.06828
10 *101:5 *101:4 335.681
11 *101:12 *101:4 8.76233
12 *656:Y *101:12 4.26113
*END

*D_NET *102 0.00862104

*CONN
*I *657:Y O *C 1781.53 1325.4 *L 0 *D INVX2
*I *656:A I *C 1781.585 1236.465 *L 0.00161 *D INVX4

*CAP
1 *657:Y 2.268e-05
2 *656:A 9.85536e-06
3 *102:2 0.0020701
4 *102:3 0.00202926
5 *102:4 0.000886635
6 *102:5 0.00088196
7 *102:6 0.000352203
8 *102:7 0.000352203
9 *102:8 2.27116e-05
10 *102:9 1.68678e-05
11 *102:10 1.68678e-05
12 *102:11 0.000789124
13 *102:12 0.000743606
14 *102:2 *89:2 0.00013393
15 *102:3 *89:3 0.00013393
16 *102:4 *89:2 5.634e-05
17 *102:5 *89:3 5.634e-05
18 *102:6 *89:2 2.324e-05
19 *102:7 *89:3 2.32399882e-05

*RES
1 *102:9 *656:A 0.609841
2 *102:12 *657:Y 8.76022
3 *102:9 *102:10 0.65483
4 *102:11 *102:12 54.2909
5 *102:8 *102:10 0.609841
6 *102:2 *102:11 4.28639
7 *102:5 *102:8 8.76022
8 *102:3 *102:2 163.797394
9 *102:5 *102:4 68.5872
10 *102:6 *102:3 1.06972
11 *102:7 *102:4 1.06972
12 *102:7 *102:6 26.3931
*END

*D_NET *103 0.017336

*CONN
*I *893:C I *C 1776.9 333.735 *L 0.000211 *D NAND4XL
*I *658:Y O *C 1603.13 336.53 *L 0 *D INVX3

*CAP
1 *893:C 2.26522e-05
2 *658:Y 0.000118764
3 *103:2 0.000135401
4 *103:3 0.000135401
5 *103:5 0.00013169
6 *103:6 1.7917e-05
7 *103:7 0.00838706
8 *103:8 0.00838706

*RES
1 *103:3 *893:C 8.75676
2 *103:3 *103:2 13.3191
3 *103:8 *103:2 8.75676
4 *103:7 *103:8 602.818176
5 *658:Y *103:5 7.19305
6 *103:6 *103:7 8.75676
7 *103:6 *103:5 8.75676
8 *103:4 *103:6 1.02101
*END

*D_NET *104 0.0215173

*CONN
*I *659:Y O *C 1383.15 336.885 *L 0 *D INVX4
*I *658:A I *C 1602.5 337.155 *L 0.0012 *D INVX3

*CAP
1 *659:Y 5.90186e-05
2 *658:A 2.25994e-05
3 *104:2 0.01065506
4 *104:5 7.18629e-05
5 *104:6 1.78844e-05
6 *104:7 0.00140685
7 *104:8 1.78844e-05
8 *104:9 0.00926609

*RES
1 *104:8 *658:A 8.76504
2 *104:4 *104:8 1.02395
3 *104:9 *104:8 8.76504
4 *104:2 *104:9 671.057678
5 *104:7 *104:2 101.351
6 *659:Y *104:5 3.59407
7 *104:6 *104:7 8.76504
8 *104:6 *104:5 8.76504
9 *104:3 *104:6 1.02395
*END

*D_NET *105 0.0301977

*CONN
*I *660:Y O *C 1074.965 337.295 *L 0 *D CLKINVX6
*I *659:A I *C 1382.985 337.005 *L 0.00161 *D INVX4

*CAP
1 *660:Y 2.25584e-05
2 *659:A 9.92568e-06
3 *105:2 0.01478363
4 *105:3 0.0108876
5 *105:6 1.78211e-05
6 *105:7 0.000270475
7 *105:8 1.78211e-05
8 *105:9 0.00391388
9 *105:10 0.000260775
10 *105:11 1.30839e-05

*RES
1 *105:11 *659:A 0.600838
2 *105:10 *105:11 0.300419
3 *105:7 *105:10 15.5737
4 *105:8 *105:7 8.76022
5 *105:5 *105:8 1.02142
6 *105:9 *105:8 8.76022
7 *105:2 *105:9 283.115
8 *105:3 *105:2 787.530212
9 *105:6 *105:3 8.76022
10 *105:6 *660:Y 8.76022
11 *105:4 *105:6 1.02142
*END

*D_NET *106 0.0302135

*CONN
*I *661:Y O *C 767.765 337.295 *L 0 *D CLKINVX6
*I *660:A I *C 1074.1 337.155 *L 0.00241 *D CLKINVX6

*CAP
1 *661:Y 2.27251e-05
2 *660:A 2.27251e-05
3 *106:2 1.94156e-05
4 *106:3 1.94156e-05
5 *106:4 0.00504431
6 *106:5 0.01445911
7 *106:7 1.78712e-05
8 *106:8 0.0094329
9 *106:4 *212:13 0.0001644
10 *106:5 *212:14 0.0001644
11 *106:5 *212:14 0.0004231
12 *106:8 *212:5 0.000423100008

*RES
1 *106:2 *660:A 8.76445
2 *106:3 *106:2 0.730371
3 *106:4 *106:3 8.76445
4 *106:5 *106:4 375.836
5 *106:8 *106:5 714.411621
6 *106:7 *106:8 8.76445
7 *106:7 *661:Y 8.76445
8 *106:6 *106:7 1.0247
*END

*D_NET *107 0.0230309

*CONN
*I *889:C I *C 1776.1 579.975 *L 0.000211 *D NAND4XL
*I *662:Y O *C 1559.13 579.35 *L 0 *D INVX3

*CAP
1 *889:C 2.26507e-05
2 *662:Y 2.26507e-05
3 *107:2 2.61741e-05
4 *107:3 2.61741e-05
5 *107:4 0.01099565
6 *107:5 4.7147e-05
7 *107:6 0.01099565
8 *107:7 5.18449e-05
9 *107:8 2.24829e-05
10 *107:6 *35:4 0.00016949
11 *107:4 *35:2 0.00016949
12 *107:6 *35:2 0.00024081
13 *107:4 *35:3 0.000240810006

*RES
1 *107:8 *889:C 8.75641
2 *107:7 *107:8 1.07555
3 *107:5 *107:7 3.01623
4 *107:6 *107:5 8.75641
5 *107:4 *107:6 766.168213
6 *107:2 *662:Y 8.75641
7 *107:3 *107:4 8.75641
8 *107:3 *107:2 1.35613
*END

*D_NET *108 0.0217552

*CONN
*I *663:Y O *C 1338.35 579.705 *L 0 *D INVX4
*I *662:A I *C 1558.5 579.975 *L 0.0012 *D INVX3

*CAP
1 *663:Y 2.26933e-05
2 *662:A 2.26933e-05
3 *108:2 0.01077683
4 *108:3 2.59821e-05
5 *108:4 0.00366249
6 *108:5 2.59821e-05
7 *108:6 4.32487e-05
8 *108:7 0.0071321
9 *108:8 4.32487e-05

*RES
1 *108:8 *662:A 8.76465
2 *108:6 *108:8 3.82271
3 *108:7 *108:6 8.76465
4 *108:2 *108:7 516.546936
5 *108:4 *108:2 264.902
6 *108:5 *663:Y 8.76465
7 *108:3 *108:4 8.76465
8 *108:3 *108:5 1.3478
*END

*D_NET *109 0.0298632

*CONN
*I *664:Y O *C 1208.165 761.375 *L 0 *D CLKINVX6
*I *663:A I *C 1338.1851 579.825 *L 0.00161 *D INVX4

*CAP
1 *664:Y 2.26785e-05
2 *663:A 9.85506e-06
3 *109:2 0.00641256
4 *109:3 0.00777671
5 *109:4 0.00778134
6 *109:5 0.00017941
7 *109:6 0.00017466
8 *109:7 4.23886e-05
9 *109:8 0.000498808
10 *109:9 0.00641256
11 *109:10 0.000498808
12 *109:11 1.68605e-05
13 *109:12 3.65706e-05

*RES
1 *109:11 *663:A 0.598099
2 *109:11 *109:12 0.64341
3 *109:7 *109:12 1.7943
4 *109:6 *664:Y 8.76306
5 *109:8 *109:7 8.76306
6 *109:5 *109:6 11.4364
7 *109:8 *109:10 35.6503
8 *109:4 *109:5 1.07839
9 *109:9 *109:10 8.76306
10 *109:3 *109:4 593.894287
11 *109:2 *109:9 386.499
12 *109:2 *109:3 8.76306
*END

*D_NET *110 0.0305226

*CONN
*I *665:Y O *C 1207.365 1079.4351 *L 0 *D CLKINVX6
*I *664:A I *C 1207.3 761.235 *L 0.00241 *D CLKINVX6

*CAP
1 *665:Y 2.25821e-05
2 *664:A 1.96464e-05
3 *110:2 3.25182e-05
4 *110:3 0.0107665
5 *110:4 0.01479916
6 *110:5 0.00405529
7 *110:6 0.000415736
8 *110:7 0.00041122

*RES
1 *110:7 *665:Y 8.76243
2 *110:6 *110:7 29.5882
3 *110:5 *110:6 1.0803
4 *110:4 *110:5 308.99
5 *110:3 *110:4 786.650574
6 *110:2 *664:A 1.20033
7 *110:2 *110:3 8.76243
*END

*D_NET *111 0.0224003

*CONN
*I *892:C I *C 1777.9 518.415 *L 0.000211 *D NAND4XL
*I *666:Y O *C 1780.35 745.735 *L 0 *D INVX4

*CAP
1 *892:C 2.26783e-05
2 *666:Y 2.26783e-05
3 *111:2 0.00163256
4 *111:3 0.00163256
5 *111:4 0.000133245
6 *111:5 0.000133245
7 *111:6 3.73133e-05
8 *111:7 3.73133e-05
9 *111:8 5.19482e-05
10 *111:9 5.19482e-05
11 *111:10 0.000271983
12 *111:11 0.000271983
13 *111:12 0.00257132
14 *111:13 0.00257132
15 *111:14 0.0011994
16 *111:15 0.0011994
17 *111:16 0.00243658
18 *111:17 0.00243658
19 *111:18 5.99131e-05
20 *111:19 5.99131e-05
21 *111:20 5.14774e-05
22 *111:21 5.14774e-05
23 *111:22 0.00053243
24 *111:23 0.000537099
25 *111:25 2.25606e-05
26 *111:26 3.7941e-05
27 *111:27 3.7941e-05
28 *111:28 7.76477e-05
29 *111:29 0.000684037
30 *111:30 0.000684037
31 *111:31 0.00030137
32 *111:32 0.00030137
33 *111:33 1.78915e-05
34 *111:34 7.76477e-05
35 *111:27 *83:11 2.87e-06
36 *111:26 *83:12 2.87e-06
37 *111:12 *83:11 0.0001857
38 *111:13 *83:12 0.0001857
39 *111:32 *83:7 1.827e-05
40 *111:31 *83:8 1.827e-05
41 *111:30 *83:7 4.834e-05
42 *111:29 *83:8 4.834e-05
43 *111:27 *83:7 2.04e-06
44 *111:26 *83:8 2.04e-06
45 *111:18 *83:7 1.111e-05
46 *111:19 *83:8 1.111e-05
47 *111:2 *83:7 0.00028173
48 *111:3 *83:8 0.00028173
49 *111:4 *83:7 1.686e-05
50 *111:5 *83:8 1.686e-05
51 *111:6 *83:7 1.124e-05
52 *111:7 *83:8 1.12399998e-05
53 *111:10 *119:4 1.621e-05
54 *111:11 *119:5 1.621e-05
55 *111:14 *119:4 8.894e-05
56 *111:15 *119:5 8.894e-05
57 *111:16 *119:4 0.00018603
58 *111:17 *119:5 0.00018603
59 *111:12 *119:4 0.00020647
60 *111:13 *119:5 0.000206470005

*RES
1 *111:25 *892:C 8.76155
2 *111:25 *111:9 1.07291
3 *111:9 *111:8 2.69069
4 *111:8 *111:5 1.07291
5 *111:5 *111:4 10.1035
6 *111:7 *111:4 1.07291
7 *111:7 *111:6 2.19964
8 *111:6 *111:3 1.07291
9 *111:3 *111:2 137.972
10 *111:2 *111:29 1.07291
11 *111:29 *111:30 52.5155
12 *111:19 *111:30 1.07291
13 *111:19 *111:18 5.99687
14 *111:18 *111:31 1.07291
15 *111:31 *111:32 21.5457
16 *111:26 *111:32 1.07291
17 *111:26 *111:27 2.99339
18 *111:13 *111:27 1.07291
19 *111:13 *111:12 220.421219
20 *111:12 *111:11 1.07291
21 *111:11 *111:10 21.3977
22 *111:17 *111:10 1.07291
23 *111:17 *111:16 194.967
24 *111:16 *111:21 1.07291
25 *111:21 *111:20 4.77934
26 *111:15 *111:20 1.07291
27 *111:15 *111:14 94.3187
28 *111:14 *111:23 1.07291
29 *111:23 *111:22 36.8692
30 *111:28 *111:22 8.76155
31 *111:28 *111:34 5.41501
32 *111:33 *111:34 8.76155
33 *111:33 *666:Y 8.76155
34 *111:24 *111:33 1.01574
*END

*D_NET *112 0.0230487

*CONN
*I *667:Y O *C 1780.35 973.005 *L 0 *D INVX4
*I *666:A I *C 1780.1851 745.615 *L 0.00161 *D INVX4

*CAP
1 *667:Y 2.26658e-05
2 *666:A 9.93152e-06
3 *112:2 0.00144202
4 *112:3 0.00143733
5 *112:4 3.69233e-05
6 *112:5 3.69233e-05
7 *112:6 0.000143855
8 *112:7 0.000143855
9 *112:8 2.17519e-05
10 *112:9 2.17519e-05
11 *112:10 0.000563903
12 *112:11 0.000563903
13 *112:12 0.000343277
14 *112:13 0.000347969
15 *112:14 0.000869526
16 *112:15 0.000869526
17 *112:16 0.0026731
18 *112:17 0.0026731
19 *112:18 0.000385867
20 *112:19 0.000385867
21 *112:20 5.08153e-05
22 *112:21 5.55068e-05
23 *112:22 4.11275e-05
24 *112:23 4.11275e-05
25 *112:24 0.00399302
26 *112:25 0.00398833
27 *112:26 3.98479e-05
28 *112:27 1.35873e-05
29 *112:28 3.07085e-05
30 *112:29 6.92769e-05
31 *112:30 6.92769e-05
32 *112:18 *197:26 2.011e-05
33 *112:19 *197:27 2.011e-05
34 *112:20 *197:26 6e-06
35 *112:21 *197:27 6e-06
36 *112:22 *197:26 3.38e-06
37 *112:23 *197:27 3.38e-06
38 *112:24 *197:49 9.6e-07
39 *112:25 *197:28 9.6e-07
40 *112:24 *197:28 0.00021385
41 *112:25 *197:29 0.00021385
42 *112:16 *197:20 0.00020321
43 *112:17 *197:21 0.000203210002
44 *112:10 *186:30 8.289e-05
45 *112:11 *186:31 8.289e-05
46 *112:2 *186:17 1.728e-05
47 *112:3 *186:18 1.728e-05
48 *112:2 *186:32 0.00019314
49 *112:3 *186:33 0.00019314
50 *112:12 *186:30 2.255e-05
51 *112:13 *186:31 2.255e-05
52 *112:14 *186:32 5.987e-05
53 *112:15 *186:33 5.987e-05
54 *112:14 *186:15 8.24e-06
55 *112:15 *186:16 8.23999238e-06

*RES
1 *112:12 *667:Y 8.76244
2 *112:13 *112:12 25.6076
3 *112:13 *112:10 1.07464
4 *112:11 *112:10 44.5745
5 *112:11 *112:16 1.07464
6 *112:17 *112:16 213.44
7 *112:4 *112:17 1.07005
8 *112:5 *112:4 2.30542
9 *112:14 *112:5 1.07005
10 *112:15 *112:14 67.9778
11 *112:15 *112:2 1.07005
12 *112:3 *112:2 115.501
13 *112:29 *112:3 8.76244
14 *112:29 *112:30 3.50865
15 *112:20 *112:30 8.76244
16 *112:21 *112:20 3.3525
17 *112:21 *112:18 1.07464
18 *112:19 *112:18 28.1748
19 *112:22 *112:19 1.07464
20 *112:23 *112:22 2.0115
21 *112:24 *112:23 1.07464
22 *112:25 *112:24 300.97226
23 *112:6 *112:25 8.76244
24 *112:7 *112:6 7.72913
25 *112:27 *666:A 0.610799
26 *112:8 *112:7 8.76244
27 *112:27 *112:28 0.344435
28 *112:9 *112:8 0.803683
29 *112:26 *112:28 1.21701
30 *112:26 *112:9 8.76244
*END

*D_NET *113 0.0323284

*CONN
*I *668:Y O *C 1514.965 1018.925 *L 0 *D CLKINVX6
*I *667:A I *C 1780.1851 973.125 *L 0.00161 *D INVX4

*CAP
1 *668:Y 2.26722e-05
2 *667:A 1.13361e-05
3 *113:2 0.01375761
4 *113:3 0.0115387
5 *113:4 0.00134942
6 *113:5 0.00134942
7 *113:6 3.25388e-05
8 *113:7 3.7787e-05
9 *113:8 7.2425e-05
10 *113:9 4.09359e-05
11 *113:10 7.2425e-05
12 *113:11 9.11086e-05
13 *113:12 4.21955e-05
14 *113:13 9.11086e-05
15 *113:14 3.65274e-05
16 *113:15 3.52678e-05
17 *113:16 3.4848e-05
18 *113:17 3.94664e-05
19 *113:18 3.16991e-05
20 *113:19 0.00224476
21 *113:20 2.68707e-05
22 *113:21 0.000684784
23 *113:22 0.000684784

*RES
1 *113:6 *667:A 0.610417
2 *113:6 *113:7 1.98385
3 *113:8 *113:7 8.75948
4 *113:8 *113:10 7.85403
5 *113:9 *113:10 8.75948
6 *113:9 *113:12 1.21066
7 *113:11 *113:12 1.3124
8 *113:11 *113:13 4.26274
9 *113:13 *113:14 1.3124
10 *113:14 *113:15 1.21066
11 *113:16 *113:15 8.75948
12 *113:16 *113:17 1.34292
13 *113:17 *113:21 1.06823
14 *113:21 *113:22 49.1182
15 *113:18 *113:22 1.06823
16 *113:18 *113:20 1.34292
17 *113:5 *668:Y 8.75948
18 *113:19 *113:20 8.75948
19 *113:4 *113:5 101.563
20 *113:2 *113:19 134.353
21 *113:3 *113:2 666.737671
22 *113:3 *113:4 8.75948
*END

*D_NET *114 0.0301385

*CONN
*I *669:Y O *C 1206.765 1018.925 *L 0 *D CLKINVX6
*I *668:A I *C 1514.1 1019.065 *L 0.00241 *D CLKINVX6

*CAP
1 *669:Y 0.000209416
2 *668:A 0.00022011
3 *114:2 0.01460008
4 *114:5 0.000222337
5 *114:6 1.78226e-05
6 *114:7 0.00988287
7 *114:8 0.000233031
8 *114:9 1.78226e-05
9 *114:10 0.00473503

*RES
1 *114:8 *668:A 13.1848
2 *114:9 *114:8 8.76071
3 *114:4 *114:9 1.02682
4 *114:10 *114:9 8.76071
5 *114:2 *114:10 342.552
6 *114:7 *114:2 715.88739
7 *669:Y *114:5 12.584
8 *114:6 *114:7 8.76071
9 *114:6 *114:5 8.76071
10 *114:3 *114:6 1.02682
*END

*D_NET *115 0.0296045

*CONN
*I *895:B I *C 1777.7 461.605 *L 0.000212 *D NAND4XL
*I *670:Y O *C 1640.765 631.415 *L 0 *D CLKINVX6

*CAP
1 *895:B 2.26391e-05
2 *670:Y 2.26391e-05
3 *115:2 0.00679297
4 *115:3 0.00683241
5 *115:4 0.0068371
6 *115:5 0.000336978
7 *115:6 0.000332283
8 *115:7 0.000799461
9 *115:8 0.00679297
10 *115:9 0.000767537
11 *115:10 4.97642e-05
12 *115:11 1.784e-05

*RES
1 *115:11 *895:B 8.76038
2 *115:10 *115:11 0.668974
3 *115:6 *670:Y 8.76038
4 *115:7 *115:10 3.20948
5 *115:5 *115:6 23.5415
6 *115:7 *115:9 55.6842
7 *115:4 *115:5 1.0831
8 *115:8 *115:9 8.76038
9 *115:3 *115:4 521.92749
10 *115:2 *115:8 411.491
11 *115:2 *115:3 8.76038
*END

*D_NET *116 0.029667

*CONN
*I *671:Y O *C 1639.765 930.005 *L 0 *D CLKINVX6
*I *670:A I *C 1639.9 631.275 *L 0.00241 *D CLKINVX6

*CAP
1 *671:Y 2.27741e-05
2 *670:A 2.95387e-05
3 *116:2 4.23914e-05
4 *116:3 0.0112536
5 *116:4 0.01477724
6 *116:5 0.00354149

*RES
1 *116:5 *671:Y 8.76243
2 *116:4 *116:5 269.979
3 *116:3 *116:4 786.650574
4 *116:2 *670:A 1.8005
5 *116:2 *116:3 8.76243
*END

*D_NET *117 0.0293819

*CONN
*I *672:Y O *C 1638.765 1233.335 *L 0 *D CLKINVX6
*I *671:A I *C 1638.9 930.145 *L 0.00241 *D CLKINVX6

*CAP
1 *672:Y 2.26816e-05
2 *671:A 2.26816e-05
3 *117:2 0.00680663
4 *117:3 0.00683856
5 *117:4 0.0073634
6 *117:5 0.00739522
7 *117:2 *195:2 0.0004664
8 *117:3 *195:3 0.000466399999

*RES
1 *117:4 *671:A 8.76059
2 *117:4 *117:5 521.525
3 *117:2 *672:Y 8.76059
4 *117:3 *117:5 3.24091
5 *117:3 *117:2 553.115601
*END

*D_NET *118 0.0230103

*CONN
*I *673:Y O *C 1638.95 1448.385 *L 0 *D INVX4
*I *672:A I *C 1637.9 1233.1949 *L 0.00241 *D CLKINVX6

*CAP
1 *673:Y 2.2593e-05
2 *672:A 2.2593e-05
3 *118:2 0.0110313
4 *118:3 0.01104949
5 *118:4 0.000451185
6 *118:5 0.000432976

*RES
1 *118:2 *673:Y 8.75778
2 *118:3 *118:2 731.146606
3 *118:4 *118:3 2.16434
4 *118:5 *118:4 31.0706
5 *672:A *118:5 8.75778
*END

*D_NET *119 0.0309973

*CONN
*I *895:C I *C 1777.9 461.605 *L 0.000211 *D NAND4XL
*I *674:Y O *C 1777.5649 776.105 *L 0 *D CLKINVX6

*CAP
1 *895:C 2.26547e-05
2 *674:Y 2.26547e-05
3 *119:2 0.000654481
4 *119:3 0.000649783
5 *119:4 0.00684183
6 *119:5 0.00684183
7 *119:6 0.000269873
8 *119:7 0.000269873
9 *119:8 0.00173794
10 *119:9 0.00173794
11 *119:10 0.00191594
12 *119:11 0.00191594
13 *119:12 3.57047e-05
14 *119:13 0.00238845
15 *119:14 0.00238845
16 *119:15 3.14243e-05
17 *119:16 2.68307e-05
18 *119:17 3.53915e-05
19 *119:18 3.53915e-05
20 *119:19 3.57047e-05
21 *119:18 *83:5 3.92e-06
22 *119:17 *83:6 3.92e-06
23 *119:14 *83:7 0.00041436
24 *119:13 *83:8 0.00041436
25 *119:2 *83:9 0.00010177
26 *119:3 *83:10 0.00010177
27 *119:2 *83:5 7.83e-06
28 *119:3 *83:6 7.83e-06
29 *119:18 *83:2 5.75e-06
30 *119:17 *83:3 5.75e-06
31 *119:6 *83:7 1.57e-05
32 *119:7 *83:8 1.57e-05
33 *119:8 *83:9 0.00013045
34 *119:9 *83:10 0.000130450013
35 *119:4 *111:10 1.621e-05
36 *119:5 *111:11 1.621e-05
37 *119:4 *111:14 8.894e-05
38 *119:5 *111:15 8.894e-05
39 *119:4 *111:16 0.00018603
40 *119:5 *111:17 0.00018603
41 *119:4 *111:12 0.00020647
42 *119:5 *111:13 0.000206470005
43 *119:14 *99:6 0.00039222
44 *119:13 *99:7 0.000392219988

*RES
1 *119:16 *674:Y 8.75799
2 *119:15 *119:16 1.33859
3 *119:11 *119:15 1.06924
4 *119:10 *119:11 142.993
5 *119:10 *119:4 1.06924
6 *119:17 *895:C 8.75799
7 *119:5 *119:4 534.914795
8 *119:17 *119:18 3.89335
9 *119:6 *119:5 1.06924
10 *119:19 *119:18 8.75799
11 *119:7 *119:6 19.6708
12 *119:12 *119:19 1.40389
13 *119:7 *119:14 1.06924
14 *119:3 *119:12 8.75799
15 *119:13 *119:14 224.451
16 *119:3 *119:2 51.9276
17 *119:8 *119:13 1.06924
18 *119:9 *119:2 1.06924
19 *119:9 *119:8 138.226
*END

*D_NET *120 0.0289078

*CONN
*I *675:Y O *C 1652.165 952.895 *L 0 *D CLKINVX6
*I *674:A I *C 1776.7 776.245 *L 0.00241 *D CLKINVX6

*CAP
1 *675:Y 2.26964e-05
2 *674:A 2.26964e-05
3 *120:2 0.00621203
4 *120:3 0.00704459
5 *120:4 0.00704932
6 *120:5 0.000266655
7 *120:6 0.00026203
8 *120:7 0.000907855
9 *120:8 0.00621203
10 *120:9 0.000907855

*RES
1 *120:6 *675:Y 8.76311
2 *120:7 *674:A 8.76311
3 *120:5 *120:6 18.1592
4 *120:7 *120:9 67.0386
5 *120:4 *120:5 1.07689
6 *120:8 *120:9 8.76311
7 *120:3 *120:4 538.742126
8 *120:2 *120:8 377.019
9 *120:2 *120:3 8.76311
*END

*D_NET *121 0.0302575

*CONN
*I *676:Y O *C 1352.5649 952.895 *L 0 *D CLKINVX6
*I *675:A I *C 1651.3 952.755 *L 0.00241 *D CLKINVX6

*CAP
1 *676:Y 2.26628e-05
2 *675:A 2.26628e-05
3 *121:2 0.01428086
4 *121:3 0.0121105
5 *121:5 1.78688e-05
6 *121:6 0.00296927
7 *121:7 1.7433e-05
8 *121:8 0.000798865
9 *121:9 1.7433e-05

*RES
1 *121:9 *675:A 8.76243
2 *121:7 *121:9 0.672187
3 *121:8 *121:7 8.76243
4 *121:3 *121:8 57.1599
5 *121:2 *121:3 786.650574
6 *121:6 *121:2 214.632
7 *121:5 *121:6 8.76243
8 *121:5 *676:Y 8.76243
9 *121:4 *121:5 1.02028
*END

*D_NET *122 0.0210458

*CONN
*I *677:Y O *C 1137.55 952.485 *L 0 *D INVX4
*I *676:A I *C 1351.7 952.755 *L 0.00241 *D CLKINVX6

*CAP
1 *677:Y 2.27129e-05
2 *676:A 2.27129e-05
3 *122:2 0.01048232
4 *122:3 0.01048232
5 *122:6 1.79144e-05
6 *122:7 1.79144e-05

*RES
1 *122:7 *676:A 8.76194
2 *122:5 *122:7 1.01991
3 *122:2 *122:7 8.76194
4 *122:3 *122:2 759.553467
5 *122:6 *122:3 8.76194
6 *122:6 *677:Y 8.76194
7 *122:4 *122:6 1.01991
*END

*D_NET *123 0.0216169

*CONN
*I *894:C I *C 1779.9 398.715 *L 0.000211 *D NAND4XL
*I *678:Y O *C 1780.13 622.97 *L 0 *D INVX3

*CAP
1 *894:C 2.2677e-05
2 *678:Y 2.2677e-05
3 *123:2 0.00964554
4 *123:3 0.00965025
5 *123:4 0.000337652
6 *123:5 0.000333087
7 *123:2 *199:9 0.00023944
8 *123:3 *199:10 0.000239439993
9 *123:2 *79:2 0.00054024
10 *123:3 *79:3 0.00054024
11 *123:4 *79:7 2.87e-06
12 *123:5 *79:6 2.87e-06
13 *123:4 *79:5 1.996e-05
14 *123:5 *79:4 1.99599454e-05

*RES
1 *123:2 *678:Y 8.76202
2 *123:3 *123:2 765.636597
3 *123:4 *123:3 1.07481
4 *123:5 *123:4 24.9075
5 *894:C *123:5 8.76202
*END

*D_NET *124 0.0211118

*CONN
*I *679:Y O *C 1779.55 832.785 *L 0 *D INVX4
*I *678:A I *C 1779.5 622.345 *L 0.0012 *D INVX3

*CAP
1 *679:Y 9.85201e-05
2 *678:A 9.95011e-06
3 *124:2 0.00918423
4 *124:3 0.00918423
5 *124:5 2.28432e-05
6 *124:6 1.79382e-05
7 *124:7 0.00010833
8 *124:8 0.00010833
9 *124:9 0.000111413
10 *124:2 *97:18 0.00019889
11 *124:3 *97:17 0.00019889
12 *124:2 *97:18 3.38e-05
13 *124:3 *97:17 3.38e-05
14 *124:2 *97:16 0.00016764
15 *124:3 *97:15 0.00016764
16 *124:2 *97:14 1.522e-05
17 *124:3 *97:13 1.522e-05
18 *124:2 *97:12 7.25e-06
19 *124:3 *97:11 7.24999604e-06
20 *124:2 *142:4 0.00071028
21 *124:3 *142:5 0.000710280028

*RES
1 *679:Y *124:9 5.52314
2 *124:2 *124:9 8.76399
3 *124:3 *124:2 747.860657
4 *124:8 *124:3 8.76399
5 *124:5 *678:A 0.604807
6 *124:7 *124:8 6.31053
7 *124:6 *124:5 8.76399
8 *124:6 *124:7 8.76399
9 *124:4 *124:6 1.01562
*END

*D_NET *125 0.0248141

*CONN
*I *680:Y O *C 1605.55 890.925 *L 0 *D INVX4
*I *679:A I *C 1779.385 832.905 *L 0.00161 *D INVX4

*CAP
1 *680:Y 2.26234e-05
2 *679:A 9.77917e-06
3 *125:2 0.00956534
4 *125:3 0.00175193
5 *125:4 0.00175193
6 *125:5 0.000906398
7 *125:6 0.000906398
8 *125:7 3.0943e-05
9 *125:8 3.76571e-05
10 *125:9 6.34916e-05
11 *125:10 6.81623e-05
12 *125:11 6.93299e-05
13 *125:12 0.00956534
14 *125:13 6.46593e-05

*RES
1 *125:7 *679:A 0.611693
2 *125:7 *125:8 1.98601
3 *125:9 *125:8 8.7623
4 *125:9 *125:10 3.64632
5 *125:5 *125:10 1.07245
6 *125:5 *125:6 63.9973
7 *125:6 *125:11 1.07245
8 *125:11 *125:13 3.65427
9 *125:4 *680:Y 8.7623
10 *125:12 *125:13 8.7623
11 *125:3 *125:4 132.499
12 *125:2 *125:12 520.621887
13 *125:2 *125:3 8.7623
*END

*D_NET *126 0.0222806

*CONN
*I *681:Y O *C 1387.15 890.925 *L 0 *D INVX4
*I *680:A I *C 1605.385 891.045 *L 0.00161 *D INVX4

*CAP
1 *681:Y 1.97943e-05
2 *680:A 9.89713e-06
3 *126:2 0.01081014
4 *126:5 3.26605e-05
5 *126:6 1.78148e-05
6 *126:7 0.00125067
7 *126:8 0.000270357
8 *126:9 1.78148e-05
9 *126:10 0.00957745
10 *126:11 0.000260789
11 *126:12 1.31962e-05

*RES
1 *126:12 *680:A 0.604001
2 *126:11 *126:12 0.302
3 *126:8 *126:11 15.5832
4 *126:9 *126:8 8.75801
5 *126:4 *126:9 1.0268
6 *126:10 *126:9 8.75801
7 *126:2 *126:10 659.729919
8 *126:7 *126:2 90.0263
9 *681:Y *126:5 1.19793
10 *126:6 *126:7 8.75801
11 *126:6 *126:5 8.75801
12 *126:3 *126:6 1.0268
*END

*D_NET *127 0.0213941

*CONN
*I *682:Y O *C 1168.55 890.925 *L 0 *D INVX4
*I *681:A I *C 1386.985 891.045 *L 0.00161 *D INVX4

*CAP
1 *682:Y 0.000316899
2 *681:A 9.89833e-06
3 *127:4 0.000329691
4 *127:5 1.7817e-05
5 *127:6 0.0099798
6 *127:7 0.000369284
7 *127:8 1.7817e-05
8 *127:9 0.0099798
9 *127:10 0.000359842
10 *127:11 1.32485e-05

*RES
1 *127:11 *681:A 0.59503
2 *127:10 *127:11 0.308534
3 *127:7 *127:10 21.5753
4 *127:8 *127:7 8.76016
5 *127:3 *127:8 1.02477
6 *127:9 *127:8 8.76016
7 *127:6 *127:9 722.145996
8 *682:Y *127:4 19.1732
9 *127:5 *127:6 8.76016
10 *127:5 *127:4 8.76016
11 *127:2 *127:5 1.02477
*END

*D_NET *128 0.00863512

*CONN
*I *683:Y O *C 1081.33 891.06 *L 0 *D INVX2
*I *682:A I *C 1168.385 891.045 *L 0.00161 *D INVX4

*CAP
1 *683:Y 2.26594e-05
2 *682:A 9.9252e-06
3 *128:3 2.59928e-05
4 *128:4 2.59928e-05
5 *128:5 0.00245051
6 *128:6 0.000255546
7 *128:7 0.00245452
8 *128:8 0.000255546
9 *128:9 0.00135073
10 *128:10 4.25473e-05
11 *128:11 1.79028e-05
12 *128:12 0.00134676
13 *128:13 3.30341e-05
14 *128:14 1.32586e-05
15 *128:7 *232:5 0.00015095
16 *128:5 *232:6 0.00015095
17 *128:8 *232:7 1.415e-05
18 *128:6 *232:8 1.415e-05

*RES
1 *128:3 *683:Y 8.76016
2 *128:3 *128:4 1.07963
3 *128:5 *128:4 8.76016
4 *128:5 *128:7 187.677536
5 *128:6 *128:7 1.02522
6 *128:14 *682:A 0.59852
7 *128:6 *128:8 19.5507
8 *128:13 *128:14 0.306419
9 *128:8 *128:9 1.02522
10 *128:10 *128:13 1.79842
11 *128:9 *128:12 96.9946
12 *128:11 *128:10 8.76016
13 *128:11 *128:12 8.76016
14 *128:2 *128:11 1.02235
*END

*D_NET *129 0.0102923

*CONN
*I *894:B I *C 1779.7 398.715 *L 0.000212 *D NAND4XL
*I *684:Y O *C 1675.73 398.58 *L 0 *D INVX2

*CAP
1 *894:B 2.26707e-05
2 *684:Y 2.26707e-05
3 *129:4 1.79184e-05
4 *129:5 0.00510558
5 *129:6 1.79184e-05
6 *129:7 0.00510558

*RES
1 *129:6 *894:B 8.76076
2 *129:3 *129:6 1.01258
3 *129:7 *129:6 8.76076
4 *129:5 *129:7 366.631592
5 *129:4 *129:5 8.76076
6 *129:4 *684:Y 8.76076
7 *129:2 *129:4 1.02377
*END

*D_NET *130 0.0231144

*CONN
*I *685:Y O *C 1571.95 526.855 *L 0 *D INVX4
*I *684:A I *C 1675.3 398.715 *L 0.000801 *D INVX2

*CAP
1 *685:Y 2.26786e-05
2 *684:A 2.26786e-05
3 *130:2 0.0051427
4 *130:3 0.004332
5 *130:4 0.004332
6 *130:5 0.00205983
7 *130:6 0.0051427
8 *130:7 0.00205983

*RES
1 *130:5 *684:A 8.76193
2 *130:5 *130:7 156.038
3 *130:4 *685:Y 8.76193
4 *130:6 *130:7 8.76193
5 *130:3 *130:4 295.94
6 *130:2 *130:6 310.390045
7 *130:2 *130:3 8.76193
*END

*D_NET *131 0.0200791

*CONN
*I *686:Y O *C 1571.95 742.315 *L 0 *D INVX4
*I *685:A I *C 1571.785 526.735 *L 0.00161 *D INVX4

*CAP
1 *686:Y 2.2665e-05
2 *685:A 2.2665e-05
3 *131:2 9.85628e-05
4 *131:3 0.000116754
5 *131:4 0.000146279
6 *131:5 0.000141656
7 *131:6 0.00977203
8 *131:7 0.00975846

*RES
1 *131:5 *686:Y 8.76377
2 *131:4 *131:5 8.741
3 *131:4 *131:7 1.08124
4 *131:6 *131:7 745.898926
5 *131:3 *131:6 2.16249
6 *131:2 *131:3 6.8972
7 *685:A *131:2 8.76377
*END

*D_NET *132 0.0208792

*CONN
*I *687:Y O *C 1571.95 955.905 *L 0 *D INVX4
*I *686:A I *C 1571.785 742.195 *L 0.00161 *D INVX4

*CAP
1 *687:Y 2.27105e-05
2 *686:A 2.27105e-05
3 *132:2 0.000625286
4 *132:3 0.000657111
5 *132:4 0.00979167
6 *132:5 0.0097597

*RES
1 *132:5 *687:Y 8.7593
2 *132:4 *132:5 709.579224
3 *132:3 *132:4 3.23737
4 *132:2 *132:3 45.9078
5 *686:A *132:2 8.7593
*END

*D_NET *133 0.0200513

*CONN
*I *688:Y O *C 1571.95 1171.365 *L 0 *D INVX4
*I *687:A I *C 1571.785 956.025 *L 0.00161 *D INVX4

*CAP
1 *688:Y 2.27395e-05
2 *687:A 2.27395e-05
3 *133:2 5.79633e-05
4 *133:3 7.62441e-05
5 *133:4 0.00974007
6 *133:5 0.0097264
7 *133:6 0.000204952
8 *133:7 0.000200196

*RES
1 *133:7 *688:Y 8.76276
2 *133:6 *133:7 13.4506
3 *133:5 *133:6 1.07832
4 *133:4 *133:5 743.881165
5 *133:3 *133:4 2.15664
6 *133:2 *133:3 3.70034
7 *687:A *133:2 8.76276
*END

*D_NET *134 0.0196111

*CONN
*I *689:Y O *C 1571.35 1383.405 *L 0 *D INVX4
*I *688:A I *C 1571.785 1171.485 *L 0.00161 *D INVX4

*CAP
1 *689:Y 2.269e-05
2 *688:A 2.269e-05
3 *134:2 0.00978284
4 *134:3 0.00978284

*RES
1 *134:3 *689:Y 8.76504
2 *134:2 *134:3 748.925537
3 *688:A *134:2 8.76504
*END

*D_NET *135 0.0232447

*CONN
*I *893:B I *C 1776.7 333.735 *L 0.000212 *D NAND4XL
*I *690:Y O *C 1555.15 331.915 *L 0 *D INVX4

*CAP
1 *893:B 2.27072e-05
2 *690:Y 5.93882e-05
3 *135:2 0.01144707
4 *135:3 0.01144707
5 *135:5 7.23138e-05
6 *135:6 1.78165e-05
7 *135:7 6.20082e-05
8 *135:8 8.0174e-05
9 *135:9 3.61569e-05

*RES
1 *135:9 *893:B 8.75745
2 *135:8 *135:9 2.14202
3 *135:7 *135:8 7.82253
4 *135:2 *135:7 8.75745
5 *135:3 *135:2 775.578369
6 *690:Y *135:5 3.59765
7 *135:6 *135:3 8.75745
8 *135:6 *135:5 8.75745
9 *135:4 *135:6 1.01776
*END

*D_NET *136 0.0206041

*CONN
*I *691:Y O *C 1510.35 504.465 *L 0 *D INVX4
*I *690:A I *C 1554.985 331.795 *L 0.00161 *D INVX4

*CAP
1 *691:Y 2.26563e-05
2 *690:A 2.26563e-05
3 *136:2 0.00222173
4 *136:3 0.00710422
5 *136:4 0.00710422
6 *136:5 3.95673e-05
7 *136:6 6.67765e-05
8 *136:7 0.000153933
9 *136:8 0.000158703
10 *136:9 0.000759908
11 *136:10 0.00222173
12 *136:11 0.000727929

*RES
1 *136:7 *690:A 8.75677
2 *136:7 *136:8 9.5943
3 *136:5 *136:8 1.07801
4 *136:5 *136:6 3.94718
5 *136:6 *136:9 3.24233
6 *136:9 *136:11 53.8093
7 *136:4 *691:Y 8.75677
8 *136:10 *136:11 8.75677
9 *136:3 *136:4 543.450256
10 *136:2 *136:10 133.632
11 *136:2 *136:3 8.75677
*END

*D_NET *137 0.0202934

*CONN
*I *692:Y O *C 1510.35 721.795 *L 0 *D INVX4
*I *691:A I *C 1510.1851 504.585 *L 0.00161 *D INVX4

*CAP
1 *692:Y 2.26747e-05
2 *691:A 2.26747e-05
3 *137:2 0.000232152
4 *137:3 0.000250472
5 *137:4 5.09053e-05
6 *137:5 4.62503e-05
7 *137:6 0.00984095
8 *137:7 0.00982729

*RES
1 *137:5 *692:Y 8.76111
2 *137:4 *137:5 2.69573
3 *137:4 *137:7 1.08514
4 *137:6 *137:7 748.589294
5 *137:3 *137:6 2.15886
6 *137:2 *137:3 15.8088
7 *691:A *137:2 8.76111
*END

*D_NET *138 0.0211713

*CONN
*I *693:Y O *C 1510.35 938.805 *L 0 *D INVX4
*I *692:A I *C 1510.1851 721.675 *L 0.00161 *D INVX4

*CAP
1 *693:Y 2.26786e-05
2 *692:A 2.26786e-05
3 *138:2 0.000785096
4 *138:3 0.000817025
5 *138:4 0.00977789
6 *138:5 0.00974596

*RES
1 *138:5 *693:Y 8.7593
2 *138:4 *138:5 709.579224
3 *138:3 *138:4 3.23737
4 *138:2 *138:3 58.0236
5 *692:A *138:2 8.7593
*END

*D_NET *139 0.0200544

*CONN
*I *694:Y O *C 1510.35 1154.265 *L 0 *D INVX4
*I *693:A I *C 1510.1851 938.925 *L 0.00161 *D INVX4

*CAP
1 *694:Y 2.27432e-05
2 *693:A 2.27432e-05
3 *139:2 5.79729e-05
4 *139:3 7.62566e-05
5 *139:4 0.00974167
6 *139:5 0.00972799
7 *139:6 0.000204837
8 *139:7 0.000200229

*RES
1 *139:7 *694:Y 8.76276
2 *139:6 *139:7 13.4506
3 *139:5 *139:6 1.07832
4 *139:4 *139:5 743.881165
5 *139:3 *139:4 2.15664
6 *139:2 *139:3 3.70034
7 *693:A *139:2 8.76276
*END

*D_NET *140 0.0161543

*CONN
*I *695:Y O *C 1510.33 1327.49 *L 0 *D INVX3
*I *694:A I *C 1510.1851 1154.385 *L 0.00161 *D INVX4

*CAP
1 *695:Y 2.2641e-05
2 *694:A 2.2641e-05
3 *140:2 0.000539943
4 *140:3 0.000571795
5 *140:4 0.00727341
6 *140:5 0.00724622
7 *140:6 0.000241171
8 *140:7 0.000236509

*RES
1 *140:7 *695:Y 8.76104
2 *140:6 *140:7 16.1436
3 *140:5 *140:6 1.08244
4 *140:4 *140:5 554.211609
5 *140:3 *140:4 3.23888
6 *140:2 *140:3 39.3485
7 *694:A *140:2 8.76104
*END

*D_NET *141 0.0338892

*CONN
*I *896:C I *C 1777.1 272.175 *L 0.000211 *D NAND4XL
*I *696:Y O *C 1779.765 615.365 *L 0 *D CLKINVX6

*CAP
1 *896:C 2.26741e-05
2 *696:Y 7.73244e-05
3 *141:2 0.00253136
4 *141:3 0.00254489
5 *141:4 0.000717264
6 *141:5 0.000717264
7 *141:6 0.00544302
8 *141:7 0.00544302
9 *141:8 0.000182971
10 *141:9 0.000178319
11 *141:10 0.00185678
12 *141:11 0.00185678
13 *141:12 0.00020307
14 *141:13 0.000207804
15 *141:14 0.00160288
16 *141:15 0.00159823
17 *141:16 8.20585e-05
18 *141:17 6.37033e-05
19 *141:18 7.16766e-05
20 *141:19 7.16766e-05
21 *141:20 2.57471e-05
22 *141:21 3.03982e-05
23 *141:22 1.87705e-05
24 *141:23 0.00204914
25 *141:24 0.00204914
26 *141:25 6.41186e-05
27 *141:26 6.15439e-05
28 *141:27 0.000844588
29 *141:28 0.000225993
30 *141:29 0.000839937
31 *141:30 0.000225993
32 *141:31 9.01979e-05
33 *141:16 *95:9 1.6e-06
34 *141:17 *95:8 1.6e-06
35 *141:18 *95:11 4.5e-06
36 *141:19 *95:10 4.5e-06
37 *141:16 *95:6 7.83e-06
38 *141:17 *95:4 7.83e-06
39 *141:6 *95:2 0.00032035
40 *141:7 *95:3 0.00032035
41 *141:20 *95:11 1.21e-06
42 *141:21 *95:10 1.21e-06
43 *141:2 *95:11 0.00017067
44 *141:3 *95:10 0.000170670012
45 *141:6 *91:11 2.3e-06
46 *141:7 *91:10 2.3e-06
47 *141:8 *91:9 1.07e-06
48 *141:9 *91:8 1.07e-06
49 *141:10 *91:6 5.452e-05
50 *141:11 *91:4 5.452e-05
51 *141:6 *91:6 0.00032139
52 *141:7 *91:4 0.00032139
53 *141:4 *91:6 5.364e-05
54 *141:5 *91:4 5.364e-05
55 *141:8 *91:3 6.4e-06
56 *141:9 *91:2 6.40002111e-06

*RES
1 *696:Y *141:31 4.26044
2 *141:12 *141:31 8.76165
3 *141:13 *141:12 13.4635
4 *141:14 *141:13 1.07013
5 *141:15 *141:14 118.684
6 *141:30 *141:15 8.76165
7 *141:28 *141:30 12.1727
8 *141:17 *896:C 8.76165
9 *141:29 *141:28 8.76165
10 *141:17 *141:16 8.28678
11 *141:27 *141:29 59.2381
12 *141:3 *141:16 2.21382
13 *141:24 *141:27 1.07013
14 *141:3 *141:2 203.919
15 *141:23 *141:24 152.446
16 *141:2 *141:19 1.07013
17 *141:23 *141:10 1.07013
18 *141:19 *141:18 4.68849
19 *141:11 *141:10 147.844
20 *141:21 *141:18 1.07013
21 *141:4 *141:11 1.07013
22 *141:21 *141:20 1.34434
23 *141:5 *141:4 56.8571
24 *141:25 *141:20 8.76165
25 *141:5 *141:6 1.07013
26 *141:25 *141:26 4.06648
27 *141:7 *141:6 438.323242
28 *141:22 *141:26 0.70227
29 *141:8 *141:7 1.07013
30 *141:9 *141:22 8.76165
31 *141:9 *141:8 11.758
*END

*D_NET *142 0.0214145

*CONN
*I *697:Y O *C 1779.55 831.235 *L 0 *D INVX4
*I *696:A I *C 1778.9 615.505 *L 0.00241 *D CLKINVX6

*CAP
1 *697:Y 2.26355e-05
2 *696:A 2.26355e-05
3 *142:2 0.000314782
4 *142:3 0.000314782
5 *142:4 0.00814939
6 *142:5 0.00815063
7 *142:6 3.14658e-05
8 *142:7 2.67397e-05
9 *142:9 3.09683e-05
10 *142:10 6.28072e-05
11 *142:11 3.09683e-05
12 *142:12 1.79094e-05
13 *142:13 7.63636e-05
14 *142:14 7.63636e-05
15 *142:15 6.28072e-05
16 *142:4 *124:2 0.00071028
17 *142:5 *124:3 0.000710280028
18 *142:4 *84:13 0.00130133
19 *142:5 *84:12 0.00130132995

*RES
1 *142:11 *697:Y 8.75608
2 *142:9 *142:11 1.46687
3 *142:10 *142:9 8.75608
4 *142:10 *142:15 6.66861
5 *142:4 *142:15 8.75608
6 *142:5 *142:4 739.482605
7 *142:5 *142:2 1.07194
8 *142:3 *142:2 21.4614
9 *142:6 *142:3 1.07194
10 *142:7 *142:6 1.34275
11 *142:14 *142:7 8.75608
12 *142:13 *142:14 4.20879
13 *142:12 *696:A 8.75608
14 *142:12 *142:13 8.75608
15 *142:8 *142:12 1.01552
*END

*D_NET *143 0.0217729

*CONN
*I *698:Y O *C 1779.55 1050.115 *L 0 *D INVX4
*I *697:A I *C 1779.385 831.115 *L 0.00161 *D INVX4

*CAP
1 *698:Y 2.26617e-05
2 *697:A 1.14277e-05
3 *143:2 0.00316872
4 *143:3 0.00317336469
5 *143:4 0.000439531
6 *143:5 0.000439531
7 *143:6 0.000345397
8 *143:7 0.000345397
9 *143:8 2.11122e-05
10 *143:9 2.11122e-05
11 *143:10 6.97767e-05
12 *143:11 6.51282e-05
13 *143:12 0.000673508
14 *143:13 0.000673508
15 *143:14 6.29492e-05
16 *143:15 6.29492e-05
17 *143:16 4.33865e-05
18 *143:17 4.33865e-05
19 *143:18 4.21275e-05
20 *143:19 4.73087e-05
21 *143:20 7.92191e-05
22 *143:21 0.00313758
23 *143:22 0.00313758
24 *143:23 7.92191e-05
25 *143:24 0.00122751
26 *143:25 0.00122751
27 *143:26 7.6798e-05
28 *143:27 7.6798e-05
29 *143:22 *197:20 4.98e-06
30 *143:21 *197:21 4.98e-06
31 *143:22 *197:20 0.00043207
32 *143:21 *197:21 0.000432070004
33 *143:2 *88:2 2.87e-06
34 *143:3 *88:3 2.87e-06
35 *143:2 *88:19 2.719e-05
36 *143:3 *88:18 2.719e-05
37 *143:2 *88:17 0.00031541
38 *143:3 *88:16 0.00031541
39 *143:4 *88:15 2.911e-05
40 *143:5 *88:14 2.911e-05
41 *143:6 *88:15 5.534e-05
42 *143:7 *88:14 5.534e-05
43 *143:2 *88:13 1.187e-05
44 *143:3 *88:12 1.187e-05
45 *143:2 *88:11 7.406e-05
46 *143:3 *88:10 7.406e-05
47 *143:8 *88:9 1.44e-06
48 *143:9 *88:8 1.44000352e-06
49 *143:22 *68:4 0.00043869
50 *143:21 *68:5 0.00043869
51 *143:25 *68:6 2.308e-05
52 *143:24 *68:7 2.308e-05
53 *143:22 *68:2 6.31e-05
54 *143:21 *68:3 6.30999786e-05

*RES
1 *143:2 *698:Y 8.76136
2 *143:3 *143:2 265.293
3 *143:3 *143:27 1.06967
4 *143:26 *143:27 4.69569
5 *143:14 *143:26 1.07421
6 *143:15 *143:14 2.87362
7 *143:8 *143:15 1.07421
8 *143:9 *143:8 0.670813
9 *143:9 *143:6 1.07421
10 *143:7 *143:6 28.9764
11 *143:7 *143:4 1.07421
12 *143:5 *143:4 33.0149
13 *143:22 *143:5 1.07421
14 *143:21 *143:22 297.043121
15 *143:21 *143:25 1.06967
16 *143:24 *143:25 90.9359
17 *143:12 *143:24 1.07421
18 *143:13 *143:12 50.8956
19 *143:13 *143:10 1.07421
20 *143:11 *143:10 4.04754
21 *143:23 *143:11 8.76136
22 *143:20 *143:23 4.22431
23 *143:16 *143:20 8.76136
24 *143:17 *143:16 2.19827
25 *143:19 *143:17 8.76136
26 *143:18 *697:A 0.616422
27 *143:18 *143:19 2.88721
*END

*D_NET *144 0.0202634

*CONN
*I *699:Y O *C 1779.55 1265.575 *L 0 *D INVX4
*I *698:A I *C 1779.385 1049.995 *L 0.00161 *D INVX4

*CAP
1 *699:Y 2.27301e-05
2 *698:A 2.27301e-05
3 *144:2 0.00923873
4 *144:3 0.00925228
5 *144:4 2.58361e-05
6 *144:5 3.06362e-05
7 *144:6 0.000406177
8 *144:7 0.000387965
9 *144:5 *88:2 3.25e-06
10 *144:4 *88:3 3.25e-06
11 *144:3 *88:4 2.173e-05
12 *144:2 *88:5 2.173e-05
13 *144:3 *88:2 0.00041326
14 *144:2 *88:3 0.000413260013

*RES
1 *144:7 *699:Y 8.75882
2 *144:4 *698:A 8.75882
3 *144:6 *144:7 27.4562
4 *144:4 *144:5 1.51359
5 *144:3 *144:6 2.13684
6 *144:2 *144:5 1.06842
7 *144:2 *144:3 729.374695
*END

*D_NET *145 0.0227987

*CONN
*I *700:Y O *C 1546.55 1265.575 *L 0 *D INVX4
*I *699:A I *C 1779.385 1265.455 *L 0.00161 *D INVX4

*CAP
1 *700:Y 0.000287226
2 *699:A 2.26268e-05
3 *145:2 0.01106604
4 *145:5 0.000300059
5 *145:6 1.78988e-05
6 *145:7 0.010871
7 *145:8 1.04691e-05
8 *145:9 1.04691e-05
9 *145:10 0.000212929

*RES
1 *145:8 *699:A 8.7616
2 *145:8 *145:9 0.119368
3 *145:4 *145:9 0.214862
4 *145:10 *145:9 8.7616
5 *145:2 *145:10 14.7061
6 *145:7 *145:2 782.289368
7 *700:Y *145:5 17.38
8 *145:6 *145:7 8.7616
9 *145:6 *145:5 8.7616
10 *145:3 *145:6 0.214862
*END

*D_NET *146 0.00914398

*CONN
*I *701:Y O *C 1453.33 1265.4399 *L 0 *D INVX2
*I *700:A I *C 1546.385 1265.455 *L 0.00161 *D INVX4

*CAP
1 *701:Y 2.2679e-05
2 *700:A 9.94333e-06
3 *146:4 1.79116e-05
4 *146:5 0.00446326
5 *146:6 7.22594e-05
6 *146:7 1.79116e-05
7 *146:8 0.00446326
8 *146:9 1.3621e-05
9 *146:10 6.31333e-05

*RES
1 *146:9 *700:A 0.600993
2 *146:9 *146:10 0.339906
3 *146:6 *146:10 3.59611
4 *146:7 *146:6 8.75874
5 *146:3 *146:7 0.216752
6 *146:8 *146:7 8.75874
7 *146:5 *146:8 322.841736
8 *146:4 *146:5 8.75874
9 *146:4 *701:Y 8.75874
10 *146:2 *146:4 0.216752
*END

*D_NET *147 0.0234613

*CONN
*I *900:A1 I *C 893.2 248.36 *L 0.000212 *D AOI22XL
*I *910:A1 I *C 949.8 248.36 *L 0.000212 *D AOI22XL
*I *902:A1 I *C 1012.4 334.94 *L 0.000212 *D AOI22XL
*I *702:Y O *C 860.16 247.53 *L 0 *D BUFX4

*CAP
1 *900:A1 4.02388e-05
2 *910:A1 2.26681e-05
3 *902:A1 2.26681e-05
4 *702:Y 2.26681e-05
5 *147:4 8.17369e-05
6 *147:5 8.17369e-05
7 *147:6 0.00156488
8 *147:7 0.00156889
9 *147:8 4.52762e-05
10 *147:9 4.12583e-05
11 *147:10 2.68059e-05
12 *147:11 3.14834e-05
13 *147:12 2.68059e-05
14 *147:13 2.21283e-05
15 *147:14 5.20526e-05
16 *147:15 5.20526e-05
17 *147:16 0.00215796
18 *147:17 0.00307062
19 *147:18 0.00376104
20 *147:19 0.00283741
21 *147:22 1.78706e-05
22 *147:23 5.3072e-05
23 *147:24 0.00393003
24 *147:25 0.00393003

*RES
1 *147:13 *910:A1 8.75859
2 *147:13 *147:12 1.55285
3 *147:15 *147:12 1.11242
4 *147:15 *147:14 5.53485
5 *147:25 *902:A1 8.75859
6 *147:14 *147:11 1.07609
7 *147:24 *147:25 297.565125
8 *147:11 *147:10 1.34398
9 *147:16 *147:24 8.75859
10 *147:18 *147:10 8.75859
11 *147:17 *147:16 155.162
12 *147:18 *147:17 66.5362
13 *147:19 *147:18 203.287
14 *147:23 *900:A1 2.51089
15 *147:4 *147:19 8.75859
16 *147:5 *147:23 8.75859
17 *147:21 *147:5 1.04885
18 *147:5 *147:4 8.53611
19 *147:6 *147:5 8.75859
20 *147:7 *147:6 115.696
21 *147:8 *147:7 1.05793
22 *147:9 *147:8 3.28277
23 *147:22 *147:9 8.75859
24 *147:22 *702:Y 8.75859
25 *147:20 *147:22 1.04885
*END

*D_NET *148 0.0916262

*CONN
*I *904:B1 I *C 768.98 583.33 *L 0.000212 *D AOI22XL
*I *901:B1 I *C 892.58 707.91 *L 0.000212 *D AOI22XL
*I *903:A1 I *C 825.8 248.36 *L 0.000212 *D AOI22XL
*I *897:B1 I *C 1074.1801 766.05 *L 0.000212 *D AOI22XL
*I *703:Y O *C 772.5 640.84 *L 0 *D CLKINVX20
*I *702:A I *C 860.57 248.04 *L 0.000389 *D BUFX4

*CAP
1 *904:B1 2.27128e-05
2 *901:B1 2.27128e-05
3 *903:A1 2.27128e-05
4 *897:B1 2.27128e-05
5 *703:Y 4.52895e-05
6 *702:A 2.27128e-05
7 *148:6 0.00248589
8 *148:7 0.00249052
9 *148:8 0.00166497
10 *148:9 0.00166089
11 *148:10 0.00567275
12 *148:11 0.00381425
13 *148:12 7.83386e-05
14 *148:13 8.24188e-05
15 *148:14 0.00378786
16 *148:15 0.00277449
17 *148:16 0.00012662
18 *148:17 0.00664396
19 *148:18 0.00659677
20 *148:19 0.000575027
21 *148:20 0.000529602
22 *148:21 9.54752e-05
23 *148:22 6.81383e-05
24 *148:23 1.97207e-05
25 *148:24 5.16817e-05
26 *148:25 0.000108668
27 *148:26 0.000108668
28 *148:27 8.33708e-05
29 *148:28 7.87467e-05
30 *148:29 0.00891306
31 *148:30 4.97777e-05
32 *148:31 0.00279598
33 *148:32 0.00267208
34 *148:33 0.00206686
35 *148:34 0.00682335
36 *148:35 0.00202144
37 *148:36 0.00279598
38 *148:37 0.00564637
39 *148:38 3.68572e-05
40 *148:39 3.68572e-05
41 *148:40 0.00682335
42 *148:41 0.00054633
43 *148:42 0.000564555
44 *148:43 7.19464e-05
45 *148:44 5.37218e-05
46 *148:45 9.61552e-05
47 *148:46 0.000100235
48 *148:47 3.25051e-05
49 *148:48 2.25768e-05
50 *148:49 2.8425e-05
51 *148:50 0.003666
52 *148:51 0.00527276
53 *148:15 *179:11 1.21e-06
54 *148:16 *179:5 1.21e-06
55 *148:17 *179:5 0.00036449
56 *148:18 *179:6 0.000364490001

*RES
1 *148:23 *897:B1 8.75908
2 *148:24 *148:23 0.736184
3 *148:24 *148:21 3.23771
4 *148:22 *148:21 4.0415
5 *148:22 *148:25 1.08174
6 *148:26 *148:25 6.74585
7 *148:27 *148:26 1.08174
8 *148:28 *148:27 4.7251
9 *148:51 *148:28 8.75908
10 *148:29 *148:51 318.227
11 *148:50 *148:29 221.08
12 *148:6 *148:50 8.75908
13 *148:7 *148:6 189.004
14 *148:48 *148:7 1.08174
15 *148:49 *148:48 8.75908
16 *148:47 *148:49 1.41227
17 *148:38 *702:A 8.75908
18 *148:46 *148:47 1.02915
19 *148:38 *148:39 2.07333
20 *148:45 *148:46 5.66411
21 *148:12 *148:39 8.75908
22 *148:44 *901:B1 8.75908
23 *148:44 *148:45 8.75908
24 *148:13 *148:12 5.14577
25 *148:43 *148:44 3.36541
26 *148:8 *148:13 1.0592
27 *148:42 *148:43 2.15597
28 *148:9 *148:8 123.243
29 *148:41 *148:42 37.6656
30 *148:14 *903:A1 8.75908
31 *148:14 *148:9 8.75908
32 *148:40 *148:41 8.75908
33 *148:14 *148:11 286.796
34 *148:34 *148:40 363.727
35 *148:11 *148:10 3.69594
36 *148:35 *148:34 8.75908
37 *148:10 *148:37 396.826
38 *148:33 *148:35 153.352
39 *148:36 *148:37 8.75908
40 *148:19 *148:33 4.31945
41 *148:31 *148:36 168.376
42 *148:20 *148:19 38.3567
43 *148:18 *148:31 8.75908
44 *703:Y *148:20 8.75908
45 *148:18 *148:17 492.311584
46 *148:17 *148:16 4.04901
47 *148:32 *703:Y 8.75908
48 *148:16 *148:15 4.77768
49 *148:15 *148:32 203.119
50 *148:30 *148:15 3.23771
51 *904:B1 *148:30 8.75908
*END

*D_NET *149 0.00945615

*CONN
*I *704:Y O *C 677.33 640.91 *L 0 *D INVX3
*I *703:A I *C 771.905 641.38 *L 0.00804 *D CLKINVX20

*CAP
1 *704:Y 2.26864e-05
2 *703:A 2.26864e-05
3 *149:2 0.00454664
4 *149:3 0.00454664
5 *149:4 7.30543e-05
6 *149:5 7.30543e-05
7 *149:6 8.57503e-05
8 *149:7 8.57503e-05

*RES
1 *149:6 *703:A 8.76215
2 *149:6 *149:7 6.4319
3 *149:2 *149:7 8.76215
4 *149:3 *149:2 327.013916
5 *149:4 *149:3 8.76215
6 *149:5 *149:4 4.72538
7 *704:Y *149:5 8.76215
*END

*D_NET *150 0.0328803

*CONN
*I *909:B1 I *C 584.58 641.47 *L 0.000212 *D AOI22XL
*I *705:Y O *C 346.565 641.675 *L 0 *D CLKINVX6
*I *704:A I *C 676.7 641.535 *L 0.0012 *D INVX3

*CAP
1 *909:B1 2.26376e-05
2 *705:Y 2.26376e-05
3 *704:A 2.26376e-05
4 *150:3 0.00300349
5 *150:4 0.01168154
6 *150:5 0.0087178
7 *150:6 8.449e-05
8 *150:7 0.0045113
9 *150:8 0.00456709
10 *150:9 2.58461e-05
11 *150:10 2.58461e-05
12 *150:11 1.76466e-05
13 *150:12 1.76466e-05
14 *150:13 8.00337e-05
15 *150:14 8.00337e-05

*RES
1 *150:13 *704:A 8.76286
2 *150:13 *150:14 5.56586
3 *150:7 *150:14 8.76286
4 *150:11 *909:B1 8.76286
5 *150:8 *150:7 326.277
6 *150:11 *150:12 0.674066
7 *150:6 *150:8 5.13253
8 *150:3 *150:12 8.76286
9 *150:3 *150:6 1.42517
10 *150:4 *150:3 214.892
11 *150:5 *150:4 631.079956
12 *150:10 *150:5 8.76286
13 *150:9 *150:10 1.34813
14 *705:Y *150:9 8.76286
*END

*D_NET *151 0.0095837

*CONN
*I *706:Y O *C 250.53 641.4 *L 0 *D INVX2
*I *705:A I *C 345.7 641.535 *L 0.00241 *D CLKINVX6

*CAP
1 *706:Y 2.26989e-05
2 *705:A 0.000177089
3 *151:2 2.00993e-05
4 *151:3 2.00993e-05
5 *151:4 0.000191609
6 *151:5 0.000195604
7 *151:6 0.00415523
8 *151:7 0.000189897
9 *151:8 3.55701e-05
10 *151:9 3.55701e-05
11 *151:10 0.00415124
12 *151:10 *156:2 0.00018554
13 *151:6 *156:3 0.00018554
14 *151:5 *156:2 8.99e-06
15 *151:4 *156:3 8.98999124e-06

*RES
1 *151:7 *705:A 10.7836
2 *151:8 *151:7 8.75843
3 *151:8 *151:9 2.01568
4 *151:10 *151:9 8.75843
5 *151:6 *151:10 312.292023
6 *151:5 *151:6 1.01975
7 *151:4 *151:5 12.7469
8 *151:2 *151:4 8.75843
9 *151:3 *151:2 0.733841
10 *706:Y *151:3 8.75843
*END

*D_NET *152 0.0242908

*CONN
*I *890:A I *C 1779.5 646.095 *L 0.000212 *D NAND4XL
*I *707:Y O *C 1553.55 646.555 *L 0 *D INVX4

*CAP
1 *890:A 4.90575e-05
2 *707:Y 2.25995e-05
3 *152:2 1.9476e-05
4 *152:3 1.9476e-05
5 *152:4 0.01204114
6 *152:6 1.78224e-05
7 *152:7 0.0118967
8 *152:8 6.1919e-05
9 *152:9 0.000162423

*RES
1 *152:8 *890:A 2.44666
2 *152:3 *152:8 8.76023
3 *152:3 *152:2 0.72803
4 *152:9 *152:2 8.76023
5 *152:4 *152:9 10.4789
6 *152:7 *152:4 782.166504
7 *152:6 *152:7 8.76023
8 *152:6 *707:Y 8.76023
9 *152:5 *152:6 1.0264
*END

*D_NET *153 0.0219747

*CONN
*I *708:Y O *C 1328.75 646.555 *L 0 *D INVX4
*I *707:A I *C 1553.385 646.435 *L 0.00161 *D INVX4

*CAP
1 *708:Y 0.0001584
2 *707:A 9.96023e-06
3 *153:2 0.01052812
4 *153:5 0.000171252
5 *153:6 1.7832e-05
6 *153:7 0.0039653
7 *153:8 0.000260412
8 *153:9 1.7832e-05
9 *153:10 0.00658066
10 *153:11 1.36552e-05
11 *153:12 0.000251255

*RES
1 *153:11 *707:A 0.596033
2 *153:11 *153:12 0.341629
3 *153:8 *153:12 14.9808
4 *153:9 *153:8 8.75878
5 *153:4 *153:9 1.02489
6 *153:10 *153:9 8.75878
7 *153:2 *153:10 476.361481
8 *153:7 *153:2 286.845
9 *708:Y *153:5 9.58741
10 *153:6 *153:7 8.75878
11 *153:6 *153:5 8.75878
12 *153:3 *153:6 1.02489
*END

*D_NET *154 0.02326

*CONN
*I *889:A I *C 1775.7 580.165 *L 0.000212 *D NAND4XL
*I *709:Y O *C 1553.73 582.77 *L 0 *D INVX3

*CAP
1 *889:A 2.30822e-05
2 *709:Y 2.25945e-05
3 *154:2 0.01065276
4 *154:3 0.01065276
5 *154:4 0.000131016
6 *154:5 0.000131016
7 *154:6 3.29978e-05
8 *154:7 2.69834e-05
9 *154:8 2.69834e-05
10 *154:9 0.000338593
11 *154:10 3.41356e-05
12 *154:11 0.000338593
13 *154:12 3.70616e-05
14 *154:2 *35:4 0.00015363
15 *154:3 *35:2 0.00015363
16 *154:2 *35:2 0.00025211
17 *154:3 *35:3 0.000252109996

*RES
1 *154:12 *889:A 1.22213
2 *154:11 *154:12 1.31524
3 *154:9 *154:11 19.752
4 *154:9 *154:10 1.29197
5 *154:6 *154:10 1.21049
6 *154:7 *154:6 8.76442
7 *154:7 *154:8 1.33852
8 *154:2 *154:8 8.76442
9 *154:3 *154:2 762.795471
10 *154:5 *709:Y 8.76442
11 *154:4 *154:3 8.76442
12 *154:4 *154:5 8.06606
*END

*D_NET *155 0.0221226

*CONN
*I *710:Y O *C 1329.35 583.125 *L 0 *D INVX4
*I *709:A I *C 1553.1 583.395 *L 0.0012 *D INVX3

*CAP
1 *710:Y 2.25788e-05
2 *709:A 2.25788e-05
3 *155:2 0.00686748
4 *155:3 0.01096077
5 *155:4 0.00411119
6 *155:5 3.44536e-05
7 *155:6 3.44536e-05
8 *155:7 3.44536e-05
9 *155:8 3.44536e-05

*RES
1 *155:7 *709:A 8.75989
2 *155:7 *155:8 2.01743
3 *155:2 *155:8 8.75989
4 *155:3 *155:2 497.046173
5 *155:4 *155:3 297.268
6 *155:6 *155:4 8.75989
7 *155:5 *155:6 2.01743
8 *710:Y *155:5 8.75989
*END

*D_NET *156 0.0304396

*CONN
*I *927:B I *C 249.3 641.345 *L 0.000211 *D AND2X1
*I *711:Y O *C 558.565 641.675 *L 0 *D CLKINVX6

*CAP
1 *927:B 2.27531e-05
2 *711:Y 2.27531e-05
3 *156:2 0.01331362
4 *156:3 0.0107494
5 *156:6 1.78774e-05
6 *156:7 0.00404579
7 *156:8 0.000189338
8 *156:9 0.00148545
9 *156:10 1.78774e-05
10 *156:11 0.000185479
11 *156:2 *151:10 0.00018554
12 *156:3 *151:6 0.00018554
13 *156:2 *151:5 8.99e-06
14 *156:3 *151:4 8.98999124e-06

*RES
1 *156:5 *156:10 1.02014
2 *156:10 *711:Y 8.76119
3 *156:11 *156:10 8.76119
4 *156:8 *156:11 12.7937
5 *156:8 *156:9 1.02014
6 *156:7 *156:9 106.262
7 *156:2 *156:7 185.701
8 *156:3 *156:2 786.538879
9 *156:6 *927:B 8.76119
10 *156:6 *156:3 8.76119
11 *156:4 *156:6 1.05614
*END

*D_NET *157 0.0216362

*CONN
*I *712:Y O *C 778.55 641.265 *L 0 *D INVX4
*I *711:A I *C 557.7 641.535 *L 0.00241 *D CLKINVX6

*CAP
1 *712:Y 2.26263e-05
2 *711:A 2.26263e-05
3 *157:2 0.0102263
4 *157:3 0.0102222
5 *157:6 1.7945e-05
6 *157:7 0.000151986
7 *157:8 1.7945e-05
8 *157:9 0.000147929
9 *157:9 *66:4 8.58e-06
10 *157:7 *66:5 8.58e-06
11 *157:2 *66:4 0.00039469
12 *157:3 *66:5 0.000394690004

*RES
1 *157:5 *157:8 1.02637
2 *157:8 *712:Y 8.76546
3 *157:9 *157:8 8.76546
4 *157:7 *157:9 10.6648
5 *157:2 *157:7 1.02637
6 *157:3 *157:2 773.153931
7 *157:6 *711:A 8.76546
8 *157:6 *157:3 8.76546
9 *157:4 *157:6 1.02637
*END

*D_NET *158 0.0217078

*CONN
*I *713:Y O *C 998.75 641.265 *L 0 *D INVX4
*I *712:A I *C 778.385 641.385 *L 0.00161 *D INVX4

*CAP
1 *713:Y 2.26542e-05
2 *712:A 2.26542e-05
3 *158:2 0.01038211
4 *158:3 0.00900274
5 *158:5 1.10895e-05
6 *158:6 1.10895e-05
7 *158:7 2.5981e-05
8 *158:8 2.5981e-05
9 *158:9 0.00139711
10 *158:9 *65:4 6.149e-05
11 *158:2 *65:5 6.149e-05
12 *158:9 *65:6 1.14e-06
13 *158:2 *65:7 1.14e-06
14 *158:2 *65:5 0.00034058
15 *158:3 *65:8 0.000340579995

*RES
1 *158:7 *713:Y 8.76129
2 *158:7 *158:8 1.3463
3 *158:9 *158:8 8.76129
4 *158:6 *712:A 8.76129
5 *158:2 *158:9 105.26
6 *158:3 *158:2 678.699524
7 *158:5 *158:6 0.155342
8 *158:5 *158:3 8.76129
9 *158:4 *158:5 0.787066
*END

*D_NET *159 0.0229605

*CONN
*I *714:Y O *C 1218.95 641.265 *L 0 *D INVX4
*I *713:A I *C 998.585 641.385 *L 0.00161 *D INVX4

*CAP
1 *714:Y 2.27137e-05
2 *713:A 2.27137e-05
3 *159:2 0.0111044
4 *159:3 0.01110851
5 *159:4 0.00023968
6 *159:5 0.000235612
7 *159:6 5.96658e-05
8 *159:7 5.96658e-05
9 *159:8 5.37331e-05
10 *159:9 5.37331e-05

*RES
1 *159:8 *714:Y 8.75815
2 *159:8 *159:9 3.35865
3 *159:2 *159:9 8.75815
4 *159:3 *159:2 764.279785
5 *159:4 *159:3 1.02625
6 *159:5 *159:4 16.3501
7 *159:7 *159:5 8.75815
8 *159:6 *159:7 3.69685
9 *713:A *159:6 8.75815
*END

*D_NET *160 0.0206794

*CONN
*I *715:Y O *C 1262.15 473.685 *L 0 *D INVX4
*I *714:A I *C 1218.785 641.385 *L 0.00161 *D INVX4

*CAP
1 *715:Y 2.26944e-05
2 *714:A 2.26944e-05
3 *160:2 0.000150494
4 *160:3 0.000150494
5 *160:4 0.00018763
6 *160:5 0.000169406
7 *160:6 0.00246968
8 *160:7 0.00749317
9 *160:8 0.00751151
10 *160:9 3.07177e-05
11 *160:10 0.00247083

*RES
1 *160:3 *715:Y 8.75674
2 *160:3 *160:2 9.45379
3 *160:9 *160:2 8.75674
4 *160:9 *160:10 1.28955
5 *160:6 *160:10 128.833
6 *160:7 *160:6 8.75674
7 *160:5 *714:A 8.75674
8 *160:7 *160:8 571.026306
9 *160:4 *160:5 10.9176
10 *160:4 *160:8 2.16087
*END

*D_NET *161 0.0232103

*CONN
*I *716:Y O *C 1262.53 250.19 *L 0 *D INVX3
*I *715:A I *C 1261.985 473.805 *L 0.00161 *D INVX4

*CAP
1 *716:Y 2.01721e-05
2 *715:A 2.26548e-05
3 *161:2 0.01016906
4 *161:3 0.0101642
5 *161:4 7.99125e-05
6 *161:5 7.99125e-05
7 *161:6 0.000251375
8 *161:7 0.000269685
9 *161:8 3.30512e-05
10 *161:9 7.64988e-05
11 *161:10 9.01537e-05
12 *161:2 *223:3 0.00053921
13 *161:3 *223:4 0.00053921
14 *161:4 *223:5 4.66e-06
15 *161:5 *223:6 4.66003075e-06
16 *161:2 *309:12 2.87e-06
17 *161:3 *309:11 2.87e-06
18 *161:2 *309:2 1.721e-05
19 *161:3 *309:3 1.721e-05
20 *161:2 *309:4 0.00039089
21 *161:3 *309:5 0.00039089
22 *161:4 *309:4 6.56e-06
23 *161:5 *309:5 6.56e-06
24 *161:6 *309:7 1.546e-05
25 *161:7 *309:6 1.54600056e-05

*RES
1 *161:8 *716:Y 1.2073
2 *161:3 *161:8 8.75582
3 *161:3 *161:2 768.168152
4 *161:5 *161:2 1.07836
5 *161:5 *161:4 7.23205
6 *161:4 *161:9 1.07836
7 *161:6 *715:A 8.75582
8 *161:9 *161:10 4.89951
9 *161:7 *161:6 18.3907
10 *161:7 *161:10 2.15672
*END

*D_NET *162 0.0241003

*CONN
*I *896:A I *C 1776.7 272.365 *L 0.000212 *D NAND4XL
*I *717:Y O *C 1605.15 333.465 *L 0 *D INVX4

*CAP
1 *896:A 5.02899e-05
2 *717:Y 2.26304e-05
3 *162:2 0.00915485
4 *162:3 0.00238178
5 *162:4 0.00238178
6 *162:5 6.31417e-05
7 *162:6 0.000445484
8 *162:7 0.00915485
9 *162:8 0.000445484

*RES
1 *162:5 *896:A 3.13357
2 *162:6 *162:5 8.75833
3 *162:6 *162:8 36.6941
4 *162:4 *717:Y 8.75833
5 *162:7 *162:8 8.75833
6 *162:3 *162:4 180.251
7 *162:2 *162:7 513.404175
8 *162:2 *162:3 8.75833
*END

*D_NET *163 0.0212672

*CONN
*I *718:Y O *C 1387.55 333.465 *L 0 *D INVX4
*I *717:A I *C 1604.985 333.585 *L 0.00161 *D INVX4

*CAP
1 *718:Y 1.98287e-05
2 *717:A 9.91435e-06
3 *163:2 0.01031328
4 *163:5 3.25757e-05
5 *163:6 1.79402e-05
6 *163:7 0.00123111
7 *163:8 0.000260448
8 *163:9 1.79402e-05
9 *163:10 0.00910011
10 *163:11 0.000250849
11 *163:12 1.32191e-05

*RES
1 *163:12 *717:A 0.603353
2 *163:11 *163:12 0.301676
3 *163:8 *163:11 14.9833
4 *163:9 *163:8 8.75867
5 *163:4 *163:9 1.0257
6 *163:10 *163:9 8.75867
7 *163:2 *163:10 659.021912
8 *163:7 *163:2 88.6124
9 *718:Y *163:5 1.19665
10 *163:6 *163:7 8.75867
11 *163:6 *163:5 8.75867
12 *163:3 *163:6 1.0257
*END

*D_NET *164 0.021296

*CONN
*I *719:Y O *C 1169.95 333.465 *L 0 *D INVX4
*I *718:A I *C 1387.385 333.585 *L 0.00161 *D INVX4

*CAP
1 *719:Y 0.000278848
2 *718:A 9.87746e-06
3 *164:4 0.000291613
4 *164:5 1.79314e-05
5 *164:6 0.00995876
6 *164:7 0.000379294
7 *164:8 1.79314e-05
8 *164:9 0.00995876
9 *164:10 0.000369721
10 *164:11 1.32206e-05

*RES
1 *164:11 *718:A 0.593863
2 *164:10 *164:11 0.307929
3 *164:7 *164:10 22.1709
4 *164:8 *164:7 8.76498
5 *164:3 *164:8 1.02276
6 *164:9 *164:8 8.76498
7 *164:6 *164:9 720.72998
8 *719:Y *164:4 16.7821
9 *164:5 *164:6 8.76498
10 *164:5 *164:4 8.76498
11 *164:2 *164:5 1.02276
*END

*D_NET *165 0.021684

*CONN
*I *720:Y O *C 953.75 333.465 *L 0 *D INVX4
*I *719:A I *C 1169.785 333.585 *L 0.00161 *D INVX4

*CAP
1 *720:Y 0.000128761
2 *719:A 9.86733e-06
3 *165:2 0.01060091
4 *165:5 0.000141701
5 *165:6 1.79553e-05
6 *165:7 0.000605951
7 *165:8 7.23065e-05
8 *165:9 1.79553e-05
9 *165:10 0.0100128
10 *165:11 6.27627e-05
11 *165:12 1.31025e-05

*RES
1 *165:12 *719:A 0.604581
2 *165:11 *165:12 0.302291
3 *165:8 *165:11 3.5951
4 *165:9 *165:8 8.75563
5 *165:4 *165:9 1.02563
6 *165:10 *165:9 8.75563
7 *165:2 *165:10 707.532593
8 *165:7 *165:2 43.3247
9 *720:Y *165:5 7.79478
10 *165:6 *165:7 8.75563
11 *165:6 *165:5 8.75563
12 *165:3 *165:6 1.02563
*END

*D_NET *166 0.0216373

*CONN
*I *891:A I *C 1778.3 707.655 *L 0.000212 *D NAND4XL
*I *721:Y O *C 1564.53 708.47 *L 0 *D INVX3

*CAP
1 *891:A 0.000318302
2 *721:Y 2.26158e-05
3 *166:2 2.59776e-05
4 *166:3 0.01001435
5 *166:4 2.59776e-05
6 *166:5 2.59776e-05
7 *166:6 0.01001435
8 *166:7 0.000331138
9 *166:8 2.59776e-05
10 *166:6 *31:2 0.00041622
11 *166:3 *31:3 0.000416220009

*RES
1 *166:7 *891:A 18.6189
2 *166:8 *166:7 8.75719
3 *166:5 *166:8 1.34119
4 *166:6 *166:5 8.75719
5 *166:3 *166:6 738.624878
6 *166:4 *721:Y 8.75719
7 *166:2 *166:3 8.75719
8 *166:2 *166:4 1.34119
*END

*D_NET *167 0.0211766

*CONN
*I *722:Y O *C 1393.35 752.575 *L 0 *D INVX4
*I *721:A I *C 1563.9 707.845 *L 0.0012 *D INVX3

*CAP
1 *722:Y 2.27135e-05
2 *721:A 2.27135e-05
3 *167:2 0.00845757
4 *167:3 0.000994621
5 *167:4 0.00119182
6 *167:5 0.00119182
7 *167:6 0.00090338
8 *167:7 0.00748863
9 *167:8 0.00090338

*RES
1 *167:6 *721:A 8.75808
2 *167:6 *167:8 67.2557
3 *167:5 *722:Y 8.75808
4 *167:7 *167:8 8.75808
5 *167:4 *167:5 89.4512
6 *167:2 *167:7 452.300842
7 *167:3 *167:2 59.4156
8 *167:3 *167:4 8.75808
*END

*D_NET *168 0.0217004

*CONN
*I *723:Y O *C 1393.35 974.875 *L 0 *D INVX4
*I *722:A I *C 1393.1851 752.455 *L 0.00161 *D INVX4

*CAP
1 *723:Y 2.26545e-05
2 *722:A 2.26545e-05
3 *168:2 0.000413292
4 *168:3 0.00043166
5 *168:4 0.000382678
6 *168:5 0.000378085
7 *168:6 0.01003151
8 *168:7 0.0100179

*RES
1 *168:5 *723:Y 8.75533
2 *168:4 *168:5 26.9001
3 *168:4 *168:7 1.07912
4 *168:6 *168:7 729.084229
5 *168:3 *168:6 2.15824
6 *168:2 *168:3 29.7703
7 *722:A *168:2 8.75533
*END

*D_NET *169 0.0216695

*CONN
*I *724:Y O *C 1393.35 1197.175 *L 0 *D INVX4
*I *723:A I *C 1393.1851 974.755 *L 0.00161 *D INVX4

*CAP
1 *724:Y 2.26979e-05
2 *723:A 2.26979e-05
3 *169:2 1.96821e-05
4 *169:3 3.79357e-05
5 *169:4 0.000390309
6 *169:5 0.000385547
7 *169:6 0.01040215
8 *169:7 0.0103885

*RES
1 *169:5 *724:Y 8.75943
2 *169:4 *169:5 27.5726
3 *169:4 *169:7 1.07471
4 *169:6 *169:7 757.332886
5 *169:3 *169:6 2.16097
6 *169:2 *169:3 0.855143
7 *723:A *169:2 8.75943
*END

*D_NET *170 0.020708

*CONN
*I *725:Y O *C 1393.35 1419.475 *L 0 *D INVX4
*I *724:A I *C 1393.1851 1197.0551 *L 0.00161 *D INVX4

*CAP
1 *725:Y 2.26976e-05
2 *724:A 2.26976e-05
3 *170:2 0.000413359
4 *170:3 0.000431692
5 *170:4 0.000382804
6 *170:5 0.000378003
7 *170:6 0.00953519
8 *170:7 0.00952151

*RES
1 *170:5 *725:Y 8.75533
2 *170:4 *170:5 26.9001
3 *170:4 *170:7 1.07912
4 *170:6 *170:7 729.084229
5 *170:3 *170:6 2.15824
6 *170:2 *170:3 29.7703
7 *724:A *170:2 8.75533
*END

*D_NET *171 0.00838554

*CONN
*I *726:Y O *C 1393.33 1508.26 *L 0 *D INVX2
*I *725:A I *C 1393.1851 1419.355 *L 0.00161 *D INVX4

*CAP
1 *726:Y 2.26833e-05
2 *725:A 2.26833e-05
3 *171:2 0.00398582
4 *171:3 0.0040177
5 *171:4 0.000152407
6 *171:5 0.000184286

*RES
1 *171:2 *726:Y 8.76016
2 *171:3 *171:2 304.081543
3 *171:5 *171:3 3.23866
4 *171:4 *171:5 9.59535
5 *725:A *171:4 8.76016
*END

*D_NET *172 0.0394817

*CONN
*I *923:A1 I *C 1781.2 1080.5 *L 0.000212 *D AOI22XL
*I *924:A1 I *C 1781.8 1138.64 *L 0.000212 *D AOI22XL
*I *921:A1 I *C 1781.8 1267.52 *L 0.000212 *D AOI22XL
*I *922:A1 I *C 1781.8 1200.2 *L 0.000212 *D AOI22XL
*I *920:A1 I *C 1781.2 1446.4399 *L 0.000212 *D AOI22XL
*I *926:A1 I *C 1781.4 1326.74 *L 0.000212 *D AOI22XL
*I *727:Y O *C 1738.115 1080.665 *L 0 *D CLKBUFX8

*CAP
1 *923:A1 7.89901e-05
2 *924:A1 2.26929e-05
3 *921:A1 2.26929e-05
4 *922:A1 2.26929e-05
5 *920:A1 2.26929e-05
6 *926:A1 2.26929e-05
7 *727:Y 2.26929e-05
8 *172:7 0.00220927
9 *172:8 0.00220927
10 *172:9 0.00256587
11 *172:10 0.00256587
12 *172:11 0.00232092
13 *172:12 0.00232092
14 *172:13 0.000346956
15 *172:14 0.000365774
16 *172:15 3.49486e-05
17 *172:16 0.000158455
18 *172:17 0.00030663
19 *172:18 0.000164385
20 *172:19 0.00241596
21 *172:20 0.00236156
22 *172:21 4.14323e-05
23 *172:22 7.32971e-05
24 *172:23 0.000444132
25 *172:24 4.1116e-05
26 *172:25 4.64136e-05
27 *172:26 4.16695e-05
28 *172:29 1.78696e-05
29 *172:30 0.00202591
30 *172:31 9.17993e-05
31 *172:32 1.78696e-05
32 *172:33 0.00210688
33 *172:34 0.000458127
34 *172:35 0.000458127
35 *172:36 3.14695e-05
36 *172:37 3.14695e-05
37 *172:38 3.14695e-05
38 *172:39 2.68045e-05
39 *172:40 6.46786e-05
40 *172:41 2.25347e-05
41 *172:42 0.000419225
42 *172:43 8.77668e-05
43 *172:44 0.0051818
44 *172:45 6.46786e-05
45 *172:46 0.00516346
46 *172:25 *101:2 2.43e-06
47 *172:26 *101:3 2.43e-06
48 *172:9 *101:4 8.427e-05
49 *172:10 *101:5 8.427e-05
50 *172:11 *101:4 0.00016084
51 *172:12 *101:5 0.00016084
52 *172:7 *101:2 0.00015642
53 *172:8 *101:3 0.00015642
54 *172:16 *101:10 5.03e-06
55 *172:17 *101:9 5.02997071e-06
56 *172:7 *86:8 0.00017557
57 *172:8 *86:9 0.00017557
58 *172:9 *86:12 0.00014486
59 *172:10 *86:13 0.00014486
60 *172:11 *86:12 0.00016779
61 *172:12 *86:13 0.00016779
62 *172:13 *86:12 2.255e-05
63 *172:14 *86:13 2.255e-05
64 *172:14 *86:12 2.3e-06
65 *172:15 *86:13 2.3e-06
66 *172:16 *86:12 1.286e-05
67 *172:17 *86:13 1.286e-05
68 *172:17 *86:12 1.042e-05
69 *172:18 *86:13 1.042e-05
70 *172:9 *86:23 1.96e-05
71 *172:10 *86:22 1.95999959e-05

*RES
1 *172:39 *920:A1 8.76258
2 *172:38 *172:39 1.3417
3 *172:35 *172:38 1.06861
4 *172:34 *172:35 32.1591
5 *172:34 *172:37 1.06861
6 *172:36 *172:37 1.3417
7 *172:36 *172:41 1.06861
8 *172:40 *172:41 8.76258
9 *172:40 *172:45 3.06334
10 *172:21 *926:A1 8.76258
11 *172:46 *172:45 8.76258
12 *172:22 *172:21 2.19658
13 *172:44 *172:46 389.067902
14 *172:22 *172:19 3.21176
15 *172:19 *172:44 2.14315
16 *172:20 *172:19 177.27
17 *172:42 *172:20 1.06861
18 *172:23 *921:A1 8.76258
19 *172:23 *172:42 30.4672
20 *172:24 *172:23 2.98023
21 *172:24 *172:9 1.06861
22 *172:10 *172:9 209.815
23 *172:13 *172:10 1.07454
24 *172:14 *922:A1 8.76258
25 *172:14 *172:13 25.4922
26 *172:15 *172:14 3.12864
27 *172:15 *172:11 1.07454
28 *172:12 *172:11 201.504
29 *172:16 *172:12 1.06861
30 *172:17 *924:A1 8.76258
31 *172:17 *172:16 17.2996
32 *172:18 *172:17 12.2474
33 *172:18 *172:7 1.06861
34 *172:8 *172:7 192.343
35 *172:8 *172:25 1.07454
36 *172:31 *923:A1 4.29224
37 *172:26 *172:25 2.68933
38 *172:32 *172:31 8.76258
39 *172:28 *172:32 1.01518
40 *172:43 *172:26 8.76258
41 *172:33 *172:32 8.76258
42 *172:33 *172:43 9.94398
43 *172:30 *172:33 147.747
44 *172:29 *172:30 8.76258
45 *172:29 *727:Y 8.76258
46 *172:27 *172:29 1.02111
*END

*D_NET *173 0.0219862

*CONN
*I *728:Y O *C 1515.55 1080.895 *L 0 *D INVX4
*I *727:A I *C 1738.7 1080.8149 *L 0.000787 *D CLKBUFX8

*CAP
1 *728:Y 0.000188157
2 *727:A 2.26774e-05
3 *173:2 0.01076931
4 *173:3 0.01076931
5 *173:6 0.000200975
6 *173:7 1.79119e-05
7 *173:8 1.79119e-05

*RES
1 *173:8 *727:A 8.76437
2 *173:5 *173:8 1.0241
3 *173:2 *173:8 8.76437
4 *173:3 *173:2 780.40979
5 *728:Y *173:6 11.3842
6 *173:7 *173:3 8.76437
7 *173:7 *173:6 8.76437
8 *173:4 *173:7 1.0241
*END

*D_NET *174 0.0217157

*CONN
*I *729:Y O *C 1293.55 1080.895 *L 0 *D INVX4
*I *728:A I *C 1515.385 1080.775 *L 0.00161 *D INVX4

*CAP
1 *729:Y 0.000178257
2 *728:A 9.90316e-06
3 *174:2 0.0104678
4 *174:5 0.000191035
5 *174:6 1.78896e-05
6 *174:7 0.00566429
7 *174:8 0.000171389
8 *174:9 1.78896e-05
9 *174:10 0.0048214
10 *174:11 1.35769e-05
11 *174:12 0.000162124

*RES
1 *174:11 *728:A 0.600641
2 *174:11 *174:12 0.33786
3 *174:8 *174:12 9.58522
4 *174:9 *174:8 8.75934
5 *174:4 *174:9 1.01984
6 *174:10 *174:9 8.75934
7 *174:2 *174:10 348.916
8 *174:7 *174:2 410.037323
9 *729:Y *174:5 10.7865
10 *174:6 *174:7 8.75934
11 *174:6 *174:5 8.75934
12 *174:3 *174:6 1.01984
*END

*D_NET *175 0.0217239

*CONN
*I *730:Y O *C 1071.55 1080.895 *L 0 *D INVX4
*I *729:A I *C 1293.385 1080.775 *L 0.00161 *D INVX4

*CAP
1 *730:Y 0.000178319
2 *729:A 9.9155e-06
3 *175:4 0.000191113
4 *175:5 1.79119e-05
5 *175:6 0.01048084
6 *175:7 0.000171282
7 *175:8 1.79119e-05
8 *175:9 0.01048084
9 *175:10 1.35938e-05
10 *175:11 0.000162166

*RES
1 *175:10 *729:A 0.601641
2 *175:10 *175:11 0.335531
3 *175:7 *175:11 9.59155
4 *175:8 *175:7 8.75851
5 *175:3 *175:8 1.01816
6 *175:9 *175:8 8.75851
7 *175:6 *175:9 758.253296
8 *730:Y *175:4 10.7833
9 *175:5 *175:6 8.75851
10 *175:5 *175:4 8.75851
11 *175:2 *175:5 1.01816
*END

*D_NET *176 0.0220318

*CONN
*I *731:Y O *C 893.95 1034.5649 *L 0 *D INVX4
*I *730:A I *C 1071.385 1080.775 *L 0.00161 *D INVX4

*CAP
1 *731:Y 2.26234e-05
2 *730:A 2.26234e-05
3 *176:2 0.000149127
4 *176:3 4.47113e-05
5 *176:4 0.000149127
6 *176:5 0.00372081
7 *176:6 0.00877292
8 *176:7 4.84596e-05
9 *176:8 3.02538e-05
10 *176:9 0.00509307
11 *176:10 0.00197988
12 *176:11 0.00199822

*RES
1 *176:8 *730:A 8.76272
2 *176:7 *176:8 1.67937
3 *176:7 *176:11 2.15784
4 *176:10 *176:11 149.989
5 *176:9 *176:10 8.76272
6 *176:6 *176:9 307.427063
7 *176:5 *176:6 223.468
8 *176:3 *176:5 2.58003
9 *176:4 *176:3 8.76272
10 *176:2 *176:4 9.41477
11 *731:Y *176:2 8.76272
*END

*D_NET *177 0.0322128

*CONN
*I *901:A1 I *C 892.2 707.72 *L 0.000212 *D AOI22XL
*I *732:Y O *C 874.965 707.705 *L 0 *D CLKINVX6
*I *731:A I *C 893.785 1034.6851 *L 0.00161 *D INVX4

*CAP
1 *901:A1 3.0093e-05
2 *732:Y 2.2742e-05
3 *731:A 9.87786e-06
4 *177:3 2.59581e-05
5 *177:4 2.59581e-05
6 *177:5 0.000820092
7 *177:6 4.29572e-05
8 *177:7 2.59581e-05
9 *177:8 5.42133e-05
10 *177:9 0.000820092
11 *177:10 6.70775e-05
12 *177:11 0.0103021
13 *177:12 0.01505454
14 *177:13 5.23756e-05
15 *177:14 0.00480225
16 *177:15 4.29572e-05
17 *177:16 1.33236e-05

*RES
1 *177:16 *731:A 0.600167
2 *177:15 *177:16 0.300083
3 *177:13 *177:15 2.40067
4 *177:14 *177:13 8.76243
5 *177:6 *901:A1 1.8005
6 *177:12 *177:14 366.834
7 *177:11 *177:12 786.650574
8 *177:7 *177:6 8.76243
9 *177:10 *177:11 3.2409
10 *177:7 *177:8 1.34437
11 *177:8 *177:10 3.00083
12 *177:9 *177:8 8.76243
13 *177:5 *177:9 58.7683
14 *177:3 *177:5 8.76243
15 *177:4 *177:3 1.34437
16 *732:Y *177:4 8.76243
*END

*D_NET *178 0.0160291

*CONN
*I *733:Y O *C 831.53 582.77 *L 0 *D INVX3
*I *732:A I *C 874.1 707.845 *L 0.00241 *D CLKINVX6

*CAP
1 *733:Y 2.26663e-05
2 *732:A 2.26663e-05
3 *178:2 0.00309466
4 *178:3 0.00214249
5 *178:4 0.00308999
6 *178:5 0.000419752
7 *178:6 0.000424427
8 *178:7 0.00214249
9 *178:8 0.00233501
10 *178:9 0.00233501

*RES
1 *178:9 *732:A 8.76093
2 *178:8 *178:9 174.875
3 *178:7 *178:8 8.76093
4 *178:3 *178:7 128.828
5 *178:5 *733:Y 8.76093
6 *178:4 *178:3 8.76093
7 *178:5 *178:6 30.2693
8 *178:2 *178:4 234.732849
9 *178:2 *178:6 1.0781
*END

*D_NET *179 0.0205528

*CONN
*I *904:A1 I *C 768.6 583.52 *L 0.000212 *D AOI22XL
*I *734:Y O *C 768.33 441.71 *L 0 *D INVX3
*I *733:A I *C 830.9 583.395 *L 0.0012 *D INVX3

*CAP
1 *904:A1 2.27267e-05
2 *734:Y 2.27267e-05
3 *733:A 2.27267e-05
4 *179:3 2.18176e-05
5 *179:4 2.18176e-05
6 *179:5 0.00661952
7 *179:6 0.00660599
8 *179:7 0.0030781
9 *179:8 0.0030781
10 *179:9 0.000149087
11 *179:10 0.000153834
12 *179:11 2.50498e-05
13 *179:11 *148:15 1.21e-06
14 *179:5 *148:16 1.21e-06
15 *179:5 *148:17 0.00036449
16 *179:6 *148:18 0.000364490001

*RES
1 *179:4 *733:A 8.75945
2 *179:4 *179:3 1.5027
3 *179:7 *179:3 8.75945
4 *179:8 *179:7 221.788
5 *179:11 *179:8 8.75945
6 *179:5 *904:A1 8.75945
7 *179:5 *179:11 1.35923
8 *179:6 *179:5 494.878998
9 *179:10 *179:6 1.07983
10 *179:9 *179:10 9.41641
11 *734:Y *179:9 8.75945
*END

*D_NET *180 0.0241017

*CONN
*I *735:Y O *C 596.75 393.475 *L 0 *D INVX4
*I *734:A I *C 767.7 441.085 *L 0.0012 *D INVX3

*CAP
1 *735:Y 2.27111e-05
2 *734:A 2.27111e-05
3 *180:2 0.0013425
4 *180:3 0.00979194
5 *180:4 0.0013425
6 *180:5 0.00979194
7 *180:6 0.000893654
8 *180:7 0.000893654

*RES
1 *180:7 *734:A 8.75787
2 *180:6 *180:7 66.588
3 *180:5 *180:6 8.75787
4 *180:3 *180:5 512.918457
5 *180:4 *180:3 8.75787
6 *180:2 *180:4 100.899
7 *735:Y *180:2 8.75787
*END

*D_NET *181 0.0213795

*CONN
*I *736:Y O *C 380.73 393.83 *L 0 *D INVX3
*I *735:A I *C 596.585 393.355 *L 0.00161 *D INVX4

*CAP
1 *736:Y 2.26711e-05
2 *735:A 2.26711e-05
3 *181:2 0.01053722
4 *181:3 0.00703784
5 *181:4 6.47974e-05
6 *181:5 6.47974e-05
7 *181:6 5.59541e-05
8 *181:7 5.59541e-05
9 *181:8 0.00351723

*RES
1 *181:5 *735:A 8.75944
2 *181:5 *181:4 5.26965
3 *181:8 *181:4 8.75944
4 *181:2 *181:8 254.366
5 *181:3 *181:2 509.368866
6 *181:7 *181:3 8.75944
7 *181:6 *181:7 3.36543
8 *736:Y *181:6 8.75944
*END

*D_NET *182 0.008603

*CONN
*I *737:Y O *C 294.13 393.34 *L 0 *D INVX2
*I *736:A I *C 380.1 393.205 *L 0.0012 *D INVX3

*CAP
1 *737:Y 2.26727e-05
2 *736:A 9.90594e-05
3 *182:3 1.78651e-05
4 *182:4 2.63525e-05
5 *182:5 0.00388967
6 *182:6 3.03292e-05
7 *182:7 0.00011188
8 *182:8 1.74497e-05
9 *182:9 1.74497e-05
10 *182:10 0.00388569
11 *182:6 *272:8 2.86e-06
12 *182:4 *272:9 2.86e-06
13 *182:10 *272:8 0.00023943
14 *182:5 *272:9 0.000239430005

*RES
1 *182:7 *736:A 5.99043
2 *182:8 *182:7 8.76293
3 *182:8 *182:9 0.672673
4 *182:10 *182:9 8.76293
5 *182:5 *182:10 297.867004
6 *182:5 *182:6 1.02719
7 *182:4 *182:6 1.42261
8 *182:3 *182:4 8.76293
9 *182:3 *737:Y 8.76293
10 *182:2 *182:3 1.02265
*END

*D_NET *183 0.0416279

*CONN
*I *916:A1 I *C 1636.2 1448.78 *L 0.000212 *D AOI22XL
*I *914:A1 I *C 1574.6 1384.88 *L 0.000212 *D AOI22XL
*I *918:A1 I *C 1509.2 1329.08 *L 0.000212 *D AOI22XL
*I *911:A1 I *C 1451 1267.52 *L 0.000212 *D AOI22XL
*I *738:Y O *C 1636.35 1339.225 *L 0 *D CLKBUFX6

*CAP
1 *916:A1 2.27196e-05
2 *914:A1 2.27196e-05
3 *918:A1 7.50434e-05
4 *911:A1 2.27196e-05
5 *738:Y 2.27196e-05
6 *183:5 0.000423639
7 *183:6 0.000423639
8 *183:7 2.21076e-05
9 *183:8 2.67739e-05
10 *183:9 0.00150247
11 *183:10 0.00283191
12 *183:11 0.00149781
13 *183:12 0.00283191
14 *183:13 0.000960877
15 *183:14 0.000979083
16 *183:15 7.1295e-05
17 *183:16 3.61065e-05
18 *183:17 5.04114e-05
19 *183:18 6.86942e-05
20 *183:19 0.000787764
21 *183:20 0.00369709
22 *183:21 0.000769482
23 *183:22 0.00307357
24 *183:23 5.87496e-05
25 *183:24 0.000151464
26 *183:25 0.00369709
27 *183:26 0.00198165
28 *183:27 0.00184166
29 *183:28 2.67739e-05
30 *183:29 2.21076e-05
31 *183:30 8.95778e-05
32 *183:31 8.95778e-05
33 *183:32 2.67739e-05
34 *183:33 3.14402e-05
35 *183:34 3.14402e-05
36 *183:35 0.00307563
37 *183:36 2.67739e-05
38 *183:37 1.97362e-05
39 *183:38 7.88682e-05
40 *183:39 6.92296e-05
41 *183:40 6.83117e-05
42 *183:41 5.30888e-05
43 *183:42 0.00495409
44 *183:43 0.00501322

*RES
1 *183:37 *916:A1 8.76035
2 *183:37 *183:38 0.738199
3 *183:32 *738:Y 8.76035
4 *183:38 *183:43 5.39808
5 *183:32 *183:33 1.34952
6 *183:42 *183:43 377.958099
7 *183:30 *183:33 1.07846
8 *183:41 *183:42 8.76035
9 *183:30 *183:31 9.2794
10 *183:40 *183:41 2.39915
11 *183:31 *183:34 1.07846
12 *183:39 *183:40 2.57793
13 *183:34 *183:36 1.34952
14 *183:35 *183:39 2.39915
15 *183:35 *183:36 8.76035
16 *183:22 *183:35 183.356
17 *183:29 *914:A1 8.76035
18 *183:22 *183:23 3.86978
19 *183:28 *183:29 1.50523
20 *183:24 *183:23 8.76035
21 *183:27 *183:28 1.07846
22 *183:24 *183:26 9.45241
23 *183:26 *183:27 137.772
24 *183:25 *183:26 8.76035
25 *183:20 *183:25 194.141
26 *183:21 *183:20 8.76035
27 *183:19 *183:21 56.7318
28 *183:18 *183:19 2.15693
29 *183:17 *183:18 2.20306
30 *918:A1 *183:17 8.76035
31 *183:15 *918:A1 2.99317
32 *183:16 *183:15 8.76035
33 *183:14 *183:16 2.15693
34 *183:13 *183:14 75.6424
35 *183:12 *183:13 8.76035
36 *183:10 *183:12 170.172
37 *183:11 *183:10 8.76035
38 *183:7 *911:A1 8.76035
39 *183:9 *183:11 112.783
40 *183:7 *183:8 1.50523
41 *183:6 *183:9 1.07846
42 *183:5 *183:8 1.07846
43 *183:5 *183:6 30.5603
*END

*D_NET *184 0.0302918

*CONN
*I *739:Y O *C 1641.5649 1018.925 *L 0 *D CLKINVX6
*I *738:A I *C 1636.9 1339.215 *L 0.000787 *D CLKBUFX6

*CAP
1 *739:Y 2.2654e-05
2 *738:A 2.2654e-05
3 *184:2 0.00133205
4 *184:3 0.01099725
5 *184:4 0.00968298
6 *184:5 0.000209591
7 *184:6 3.40649e-05
8 *184:7 0.000210766
9 *184:8 0.00292001
10 *184:9 3.28902e-05
11 *184:10 0.00291532
12 *184:11 0.000201872
13 *184:12 0.000206571
14 *184:2 *195:5 8.574e-05
15 *184:3 *195:2 8.574e-05
16 *184:3 *195:5 0.00019707
17 *184:4 *195:2 0.00019707
18 *184:3 *195:2 0.00046886
19 *184:4 *195:3 0.000468860004

*RES
1 *184:11 *739:Y 8.76234
2 *184:11 *184:12 13.4508
3 *184:8 *184:12 1.08475
4 *184:8 *184:10 221.276
5 *184:9 *184:10 8.76234
6 *184:2 *738:A 8.76234
7 *184:6 *184:9 1.19322
8 *184:3 *184:2 111.235
9 *184:4 *184:3 789.887878
10 *184:6 *184:7 1.28964
11 *184:5 *184:4 8.76234
12 *184:5 *184:7 11.3898
*END

*D_NET *185 0.00902013

*CONN
*I *740:Y O *C 1731.9301 1019.2 *L 0 *D INVX2
*I *739:A I *C 1640.7 1019.065 *L 0.00241 *D CLKINVX6

*CAP
1 *740:Y 3.738e-05
2 *739:A 2.26996e-05
3 *185:2 1.78493e-05
4 *185:3 1.78493e-05
5 *185:5 1.79139e-05
6 *185:6 0.00423823
7 *185:7 5.01849e-05
8 *185:8 0.00423823
9 *185:8 *196:4 0.00018988
10 *185:6 *196:5 0.000189880004

*RES
1 *185:7 *740:Y 1.79544
2 *185:3 *185:7 8.76195
3 *185:3 *185:2 0.675125
4 *185:8 *185:2 8.76195
5 *185:6 *185:8 320.615814
6 *185:5 *739:A 8.76195
7 *185:5 *185:6 8.76195
8 *185:4 *185:5 1.02247
*END

*D_NET *186 0.0333646

*CONN
*I *917:A1 I *C 1780.2 830.84 *L 0.000212 *D AOI22XL
*I *913:A1 I *C 1780.6 892.4 *L 0.000212 *D AOI22XL
*I *912:A1 I *C 1779.6 953.96 *L 0.000212 *D AOI22XL
*I *915:A1 I *C 1776.6 1018.94 *L 0.000212 *D AOI22XL
*I *741:Y O *C 1692.165 830.825 *L 0 *D CLKINVX6
*I *740:A I *C 1731.5 1019.065 *L 0.000801 *D INVX2

*CAP
1 *917:A1 3.00546e-05
2 *913:A1 8.14534e-05
3 *912:A1 2.08787e-05
4 *915:A1 2.2674e-05
5 *741:Y 2.2674e-05
6 *740:A 2.2674e-05
7 *186:6 0.00266555
8 *186:7 0.00267027
9 *186:8 0.000239373
10 *186:9 0.000336585
11 *186:10 0.000104061
12 *186:11 3.18499e-05
13 *186:12 3.18499e-05
14 *186:13 0.000474092
15 *186:14 0.000469371
16 *186:15 5.58538e-05
17 *186:16 6.05082e-05
18 *186:17 0.000293166
19 *186:18 0.000293166
20 *186:19 4.38851e-05
21 *186:20 3.91641e-05
22 *186:21 1.94823e-05
23 *186:22 3.63714e-05
24 *186:23 5.8181e-05
25 *186:24 0.00435759
26 *186:25 0.00429136
27 *186:26 0.00017441
28 *186:27 0.00017441
29 *186:28 0.0015641
30 *186:29 0.00156883
31 *186:30 0.000808018
32 *186:31 0.000803363
33 *186:32 0.0016667
34 *186:33 0.0016667
35 *186:34 8.02565e-05
36 *186:35 0.000119487
37 *186:38 1.78865e-05
38 *186:39 0.00222684
39 *186:40 0.00023791
40 *186:41 0.00023791
41 *186:42 0.00023279
42 *186:43 0.00222684
43 *186:44 4.60793e-05
44 *186:45 7.76633e-05
45 *186:46 3.36452e-05
46 *186:47 4.29542e-05
47 *186:48 1.78865e-05
48 *186:49 0.00023279
49 *186:28 *85:21 7.131e-05
50 *186:29 *85:20 7.131e-05
51 *186:28 *85:6 4.12e-06
52 *186:29 *85:7 4.12e-06
53 *186:28 *85:10 9.891e-05
54 *186:29 *85:11 9.891e-05
55 *186:30 *85:19 6.011e-05
56 *186:31 *85:18 6.011e-05
57 *186:30 *85:8 8.58e-06
58 *186:31 *85:9 8.58e-06
59 *186:32 *85:8 0.00032329
60 *186:33 *85:9 0.00032329
61 *186:26 *85:10 1.09e-05
62 *186:27 *85:11 1.08999835e-05
63 *186:30 *112:10 8.289e-05
64 *186:31 *112:11 8.289e-05
65 *186:17 *112:2 1.728e-05
66 *186:18 *112:3 1.728e-05
67 *186:32 *112:2 0.00019314
68 *186:33 *112:3 0.00019314
69 *186:30 *112:12 2.255e-05
70 *186:31 *112:13 2.255e-05
71 *186:32 *112:14 5.987e-05
72 *186:33 *112:15 5.987e-05
73 *186:15 *112:14 8.24e-06
74 *186:16 *112:15 8.23999238e-06
75 *186:19 *68:4 5.75e-06
76 *186:20 *68:5 5.75e-06
77 *186:6 *68:4 0.00020058
78 *186:7 *68:5 0.000200579995

*RES
1 *186:41 *740:A 8.76108
2 *186:40 *186:41 16.8183
3 *186:39 *186:40 8.76108
4 *186:39 *186:43 135.888
5 *186:8 *915:A1 8.76108
6 *186:9 *186:43 8.76108
7 *186:9 *186:8 16.0205
8 *186:10 *186:9 6.70103
9 *186:42 *186:10 8.76108
10 *186:42 *186:49 12.792
11 *186:28 *186:49 8.76108
12 *186:29 *186:28 126.489
13 *186:26 *186:29 1.06991
14 *186:27 *186:26 12.9422
15 *186:46 *912:A1 1.22477
16 *186:27 *186:30 1.07461
17 *186:11 *186:46 8.76108
18 *186:31 *186:30 69.4035
19 *186:12 *186:11 1.46409
20 *186:34 *186:31 8.76108
21 *186:35 *186:12 8.76108
22 *186:35 *186:34 6.28339
23 *186:44 *186:35 2.11636
24 *186:6 *186:44 8.76108
25 *186:7 *186:6 214.635
26 *186:7 *186:19 1.06991
27 *186:20 *186:19 2.69355
28 *186:45 *186:20 8.76108
29 *186:45 *913:A1 7.27353
30 *186:15 *913:A1 8.76108
31 *186:16 *186:15 4.56121
32 *186:16 *186:32 1.06991
33 *186:33 *186:32 159.271
34 *186:33 *186:17 1.07461
35 *186:47 *917:A1 1.8395
36 *186:18 *186:17 20.9008
37 *186:48 *186:47 8.76108
38 *186:37 *186:48 1.14969
39 *186:13 *186:18 1.07461
40 *186:21 *186:48 8.76108
41 *186:14 *186:13 33.5709
42 *186:22 *186:21 0.708582
43 *186:23 *186:14 8.76108
44 *186:22 *186:24 2.03659
45 *186:24 *186:23 5.88452
46 *186:25 *186:24 307.534149
47 *186:38 *186:25 8.76108
48 *186:38 *741:Y 8.76108
49 *186:36 *186:38 1.02299
*END

*D_NET *187 0.0310288

*CONN
*I *742:Y O *C 1386.5649 830.825 *L 0 *D CLKINVX6
*I *741:A I *C 1691.3 830.965 *L 0.00241 *D CLKINVX6

*CAP
1 *742:Y 2.26963e-05
2 *741:A 2.26963e-05
3 *187:2 0.0126096
4 *187:3 0.01416572
5 *187:5 1.75086e-05
6 *187:6 1.75086e-05
7 *187:7 0.00129952
8 *187:8 1.79409e-05
9 *187:9 0.00285562

*RES
1 *187:5 *742:Y 8.76243
2 *187:5 *187:6 0.672187
3 *187:7 *187:6 8.76243
4 *187:3 *187:9 199.459
5 *187:2 *187:3 786.650574
6 *187:7 *187:2 93.566
7 *187:8 *741:A 8.76243
8 *187:8 *187:9 8.76243
9 *187:4 *187:8 1.02028
*END

*D_NET *188 0.03101

*CONN
*I *743:Y O *C 1081.165 830.825 *L 0 *D CLKINVX6
*I *742:A I *C 1385.7 830.965 *L 0.00241 *D CLKINVX6

*CAP
1 *743:Y 2.26939e-05
2 *742:A 2.26939e-05
3 *188:2 0.0150227
4 *188:5 1.78801e-05
5 *188:6 0.0114008
6 *188:7 0.000432789
7 *188:8 0.00364364
8 *188:9 1.78801e-05
9 *188:10 0.000428893

*RES
1 *188:9 *742:A 8.76243
2 *188:4 *188:9 1.02028
3 *188:10 *188:9 8.76243
4 *188:7 *188:10 30.4405
5 *188:7 *188:8 1.02028
6 *188:2 *188:8 262.585
7 *188:6 *188:2 786.650574
8 *188:5 *188:6 8.76243
9 *188:5 *743:Y 8.76243
10 *188:3 *188:5 1.02028
*END

*D_NET *189 0.0213424

*CONN
*I *744:Y O *C 862.75 831.235 *L 0 *D INVX4
*I *743:A I *C 1080.3 830.965 *L 0.00241 *D CLKINVX6

*CAP
1 *744:Y 2.27355e-05
2 *743:A 5.93381e-05
3 *189:2 0.01056718
4 *189:5 1.78982e-05
5 *189:6 0.00517402
6 *189:7 7.22377e-05
7 *189:8 1.78982e-05
8 *189:9 0.00541105

*RES
1 *189:7 *743:A 3.59678
2 *189:8 *189:7 8.75893
3 *189:4 *189:8 1.02168
4 *189:9 *189:8 8.75893
5 *189:2 *189:9 391.558868
6 *189:6 *189:2 374.483
7 *189:5 *189:6 8.75893
8 *189:5 *744:Y 8.75893
9 *189:3 *189:5 1.02168
*END

*D_NET *190 0.0213061

*CONN
*I *745:Y O *C 644.75 831.235 *L 0 *D INVX4
*I *744:A I *C 862.585 831.115 *L 0.00161 *D INVX4

*CAP
1 *745:Y 0.00015841
2 *744:A 9.96989e-06
3 *190:4 0.000171229
4 *190:5 1.78825e-05
5 *190:6 0.01037106
6 *190:7 9.21028e-05
7 *190:8 1.78825e-05
8 *190:9 0.01037106
9 *190:10 1.36097e-05
10 *190:11 8.29242e-05

*RES
1 *190:10 *744:A 0.596024
2 *190:10 *190:11 0.34386
3 *190:7 *190:11 4.79111
4 *190:8 *190:7 8.75697
5 *190:3 *190:8 1.02012
6 *190:9 *190:8 8.75697
7 *190:6 *190:9 751.173401
8 *745:Y *190:4 9.58223
9 *190:5 *190:6 8.75697
10 *190:5 *190:4 8.75697
11 *190:2 *190:5 1.02012
*END

*D_NET *191 0.0213257

*CONN
*I *746:Y O *C 426.55 831.235 *L 0 *D INVX4
*I *745:A I *C 644.585 831.115 *L 0.00161 *D INVX4

*CAP
1 *746:Y 5.93493e-05
2 *745:A 9.97068e-06
3 *191:2 0.01037188
4 *191:5 7.2327e-05
5 *191:6 1.78839e-05
6 *191:7 0.00471297
7 *191:8 0.000191026
8 *191:9 1.78839e-05
9 *191:10 0.0056768
10 *191:11 1.36108e-05
11 *191:12 0.000182004

*RES
1 *191:11 *745:A 0.601802
2 *191:11 *191:12 0.338514
3 *191:8 *191:12 10.7886
4 *191:9 *191:8 8.76374
5 *191:4 *191:9 1.02181
6 *191:10 *191:9 8.76374
7 *191:2 *191:10 410.830261
8 *191:7 *191:2 341.053
9 *746:Y *191:5 3.59828
10 *191:6 *191:7 8.76374
11 *191:6 *191:5 8.76374
12 *191:3 *191:6 1.02181
*END

*D_NET *192 0.0216491

*CONN
*I *747:Y O *C 251.95 786.775 *L 0 *D INVX4
*I *746:A I *C 426.385 831.115 *L 0.00161 *D INVX4

*CAP
1 *747:Y 2.26429e-05
2 *746:A 2.26429e-05
3 *192:2 0.000141551
4 *192:3 0.000141551
5 *192:4 4.47561e-05
6 *192:5 0.00867779
7 *192:6 0.000222721
8 *192:7 0.000204448
9 *192:8 0.00866256
10 *192:9 0.00174509
11 *192:10 0.00176337

*RES
1 *192:7 *746:A 8.76226
2 *192:6 *192:7 13.7852
3 *192:6 *192:10 2.16067
4 *192:9 *192:10 131.825
5 *192:8 *192:9 8.76226
6 *192:5 *192:8 522.514282
7 *192:4 *192:5 2.59918
8 *192:2 *192:4 8.76226
9 *192:3 *192:2 8.75428
10 *747:Y *192:3 8.76226
*END

*D_NET *193 0.0213738

*CONN
*I *748:Y O *C 251.95 562.605 *L 0 *D INVX4
*I *747:A I *C 251.785 786.655 *L 0.00161 *D INVX4

*CAP
1 *748:Y 2.26424e-05
2 *747:A 2.26424e-05
3 *193:2 0.00899314
4 *193:3 0.00897489
5 *193:4 0.000802226
6 *193:5 0.000815812
7 *193:6 3.12876e-05
8 *193:7 3.59533e-05
9 *193:2 *290:8 0.00011046
10 *193:3 *290:9 0.00011046
11 *193:2 *290:9 5.213e-05
12 *193:3 *290:6 5.213e-05
13 *193:2 *290:6 0.00041648
14 *193:3 *290:7 0.000416479994
15 *193:2 *298:2 0.00025858
16 *193:3 *298:3 0.000258580004

*RES
1 *193:3 *748:Y 8.75901
2 *193:3 *193:2 734.054382
3 *193:5 *193:2 2.15055
4 *193:6 *747:A 8.75901
5 *193:5 *193:4 58.5689
6 *193:7 *193:6 1.68012
7 *193:7 *193:4 1.07527
*END

*D_NET *194 0.0418607

*CONN
*I *914:B1 I *C 1574.98 1385.0699 *L 0.000212 *D AOI22XL
*I *916:B1 I *C 1636.58 1448.59 *L 0.000212 *D AOI22XL
*I *918:B1 I *C 1509.58 1328.89 *L 0.000212 *D AOI22XL
*I *911:B1 I *C 1451.38 1267.33 *L 0.000212 *D AOI22XL
*I *749:Y O *C 1636.75 1337.115 *L 0 *D CLKBUFX6

*CAP
1 *914:B1 2.26095e-05
2 *916:B1 2.26095e-05
3 *918:B1 2.26095e-05
4 *911:B1 2.26095e-05
5 *749:Y 2.26095e-05
6 *194:5 0.000957789
7 *194:6 0.000934093
8 *194:7 1.75369e-05
9 *194:8 2.22472e-05
10 *194:9 0.00473547
11 *194:10 0.00474909
12 *194:11 0.000345085
13 *194:12 0.00043161
14 *194:13 0.000111598
15 *194:14 0.00176405
16 *194:15 0.00207696
17 *194:16 0.000319795
18 *194:17 0.00157383
19 *194:18 0.00159209
20 *194:19 0.00044393
21 *194:20 0.000425741
22 *194:22 0.0032578
23 *194:23 0.000836698
24 *194:24 0.000836698
25 *194:25 0.0032578
26 *194:26 6.57271e-05
27 *194:27 3.52912e-05
28 *194:28 3.14504e-05
29 *194:29 0.00332882
30 *194:30 2.68126e-05
31 *194:31 1.78992e-05
32 *194:32 6.57271e-05
33 *194:33 0.00306367
34 *194:34 5.87703e-05
35 *194:35 0.00332882
36 *194:36 0.00303439

*RES
1 *194:7 *916:B1 8.76089
2 *194:8 *194:7 0.677303
3 *194:9 *194:8 1.07928
4 *194:10 *194:9 360.875885
5 *194:13 *749:Y 8.76089
6 *194:11 *194:10 2.15856
7 *194:13 *194:12 11.4976
8 *194:12 *194:11 22.8741
9 *194:36 *194:12 8.76089
10 *194:33 *194:36 182.756
11 *194:33 *194:34 3.87109
12 *194:16 *194:34 8.76089
13 *194:14 *914:B1 8.76089
14 *194:16 *194:15 22.2574
15 *194:15 *194:14 132.371
16 *194:20 *911:B1 8.76089
17 *194:35 *194:15 8.76089
18 *194:20 *194:19 30.3905
19 *194:29 *194:35 198.934
20 *194:19 *194:18 2.15856
21 *194:30 *194:29 8.76089
22 *194:18 *194:17 118.836
23 *194:28 *194:30 1.3491
24 *194:22 *194:17 8.76089
25 *194:24 *194:28 1.07928
26 *194:22 *194:25 170.174
27 *194:23 *194:24 61.4584
28 *194:6 *194:25 8.76089
29 *194:23 *194:27 1.07928
30 *194:6 *194:5 69.7622
31 *194:5 *194:27 1.3491
32 *194:26 *194:5 8.76089
33 *194:26 *194:32 3.5407
34 *194:31 *918:B1 8.76089
35 *194:31 *194:32 8.76089
36 *194:21 *194:31 1.02421
*END

*D_NET *195 0.0300223

*CONN
*I *750:Y O *C 1639.5649 1018.925 *L 0 *D CLKINVX6
*I *749:A I *C 1637.3 1337.125 *L 0.000787 *D CLKBUFX6

*CAP
1 *750:Y 2.25243e-05
2 *749:A 1.98131e-05
3 *195:2 0.0136679
4 *195:3 0.00953385
5 *195:4 3.25352e-05
6 *195:5 0.00421101
7 *195:6 1.96045e-05
8 *195:7 7.86267e-05
9 *195:2 *117:2 0.0004664
10 *195:3 *117:3 0.000466399999
11 *195:5 *184:2 8.574e-05
12 *195:2 *184:3 8.574e-05
13 *195:5 *184:3 0.00019707
14 *195:2 *184:4 0.00019707
15 *195:2 *184:3 0.00046886
16 *195:3 *184:4 0.000468860004

*RES
1 *195:6 *750:Y 8.75621
2 *195:6 *195:7 0.73673
3 *195:3 *195:7 5.39866
4 *195:2 *195:5 340.031
5 *195:3 *195:2 791.513428
6 *195:4 *195:5 8.75621
7 *749:A *195:4 1.19568
*END

*D_NET *196 0.00942395

*CONN
*I *751:Y O *C 1732.73 1019.2 *L 0 *D INVX2
*I *750:A I *C 1638.7 1019.065 *L 0.00241 *D CLKINVX6

*CAP
1 *751:Y 2.26375e-05
2 *750:A 2.26375e-05
3 *196:2 5.35192e-05
4 *196:3 5.35192e-05
5 *196:4 0.00442851
6 *196:5 0.00442851
7 *196:6 1.74343e-05
8 *196:7 1.74343e-05
9 *196:4 *185:8 0.00018988
10 *196:5 *185:6 0.000189880004

*RES
1 *196:6 *751:Y 8.76102
2 *196:6 *196:7 0.675096
3 *196:4 *196:7 8.76102
4 *196:5 *196:4 332.654663
5 *196:2 *196:5 8.76102
6 *196:3 *196:2 3.01509
7 *750:A *196:3 8.76102
*END

*D_NET *197 0.0330976

*CONN
*I *917:B1 I *C 1780.58 831.03 *L 0.000212 *D AOI22XL
*I *913:B1 I *C 1780.98 892.59 *L 0.000212 *D AOI22XL
*I *912:B1 I *C 1779.98 954.15 *L 0.000212 *D AOI22XL
*I *915:B1 I *C 1776.98 1019.13 *L 0.000212 *D AOI22XL
*I *752:Y O *C 1780.765 741.905 *L 0 *D CLKINVX6
*I *751:A I *C 1732.3 1019.065 *L 0.000801 *D INVX2

*CAP
1 *917:B1 2.2657e-05
2 *913:B1 2.2657e-05
3 *912:B1 2.2657e-05
4 *915:B1 2.2657e-05
5 *752:Y 2.2657e-05
6 *751:A 2.2657e-05
7 *197:6 0.00191259
8 *197:7 0.00193415
9 *197:8 4.9708e-05
10 *197:9 3.28869e-05
11 *197:10 0.000769651
12 *197:11 0.000769651
13 *197:12 0.00014013
14 *197:13 0.00014013
15 *197:14 9.26876e-05
16 *197:15 9.26876e-05
17 *197:16 3.14451e-05
18 *197:17 2.67764e-05
19 *197:18 2.17644e-05
20 *197:19 2.17644e-05
21 *197:20 0.00234225
22 *197:21 0.00234699
23 *197:22 6.2135e-05
24 *197:23 6.2135e-05
25 *197:24 7.89561e-05
26 *197:25 0.00045362
27 *197:26 0.00307503
28 *197:27 0.00302587
29 *197:28 0.00449947
30 *197:29 0.00447963
31 *197:37 1.7851e-05
32 *197:38 0.00181544
33 *197:39 0.000398488
34 *197:40 0.0018324
35 *197:41 1.7851e-05
36 *197:42 1.7851e-05
37 *197:43 4.05766e-05
38 *197:44 2.25197e-05
39 *197:45 5.22484e-05
40 *197:46 4.05766e-05
41 *197:47 1.7851e-05
42 *197:48 1.7851e-05
43 *197:49 4.49707e-05
44 *197:50 1.7851e-05
45 *197:51 5.22484e-05
46 *197:52 7.42188e-05
47 *197:26 *112:18 2.011e-05
48 *197:27 *112:19 2.011e-05
49 *197:26 *112:20 6e-06
50 *197:27 *112:21 6e-06
51 *197:26 *112:22 3.38e-06
52 *197:27 *112:23 3.38e-06
53 *197:49 *112:24 9.6e-07
54 *197:28 *112:25 9.6e-07
55 *197:28 *112:24 0.00021385
56 *197:29 *112:25 0.00021385
57 *197:20 *112:16 0.00020321
58 *197:21 *112:17 0.000203210002
59 *197:20 *143:22 4.98e-06
60 *197:21 *143:21 4.98e-06
61 *197:20 *143:22 0.00043207
62 *197:21 *143:21 0.000432070004
63 *197:6 *74:5 5.985e-05
64 *197:7 *74:4 5.985e-05
65 *197:7 *74:5 2.88e-06
66 *197:8 *74:4 2.88e-06
67 *197:8 *74:5 1.21e-06
68 *197:9 *74:4 1.21e-06
69 *197:10 *74:5 4.814e-05
70 *197:11 *74:4 4.814e-05
71 *197:12 *74:5 6.85e-06
72 *197:13 *74:4 6.85e-06
73 *197:14 *74:5 5.77e-06
74 *197:15 *74:4 5.77000148e-06

*RES
1 *197:32 *197:42 1.01563
2 *197:42 *752:Y 8.75917
3 *197:43 *197:42 8.75917
4 *197:47 *917:B1 8.75917
5 *197:34 *197:47 1.01563
6 *197:43 *197:46 2.10277
7 *197:48 *197:47 8.75917
8 *197:35 *197:48 1.01563
9 *197:29 *197:46 8.75917
10 *197:18 *913:B1 8.75917
11 *197:28 *197:48 8.75917
12 *197:29 *197:28 312.488312
13 *197:19 *197:18 0.801056
14 *197:28 *197:49 1.33986
15 *197:50 *197:19 8.75917
16 *197:36 *197:50 1.01086
17 *197:49 *197:27 2.14569
18 *197:26 *197:50 8.75917
19 *197:27 *197:26 215.427
20 *197:26 *197:52 4.69667
21 *197:51 *197:52 8.75917
22 *197:45 *197:51 2.80847
23 *197:44 *197:45 8.75917
24 *197:21 *197:44 1.07284
25 *197:20 *912:B1 8.75917
26 *197:33 *197:20 1.01563
27 *197:21 *197:20 214.507
28 *197:22 *197:20 8.75917
29 *197:23 *197:22 5.8458
30 *197:17 *197:23 8.75917
31 *197:17 *197:16 1.33986
32 *197:15 *197:16 1.07284
33 *197:15 *197:14 6.90911
34 *197:14 *197:11 1.07284
35 *197:11 *197:10 59.302
36 *197:13 *197:10 1.07284
37 *197:13 *197:12 11.4198
38 *197:12 *197:9 1.07284
39 *197:9 *197:8 1.34463
40 *197:8 *197:7 3.7478
41 *197:7 *197:6 146.441
42 *197:41 *915:B1 8.75917
43 *197:31 *197:41 1.01563
44 *197:24 *197:6 8.75917
45 *197:25 *197:41 8.75917
46 *197:25 *197:24 5.96978
47 *197:39 *197:25 26.8688
48 *197:39 *197:40 2.03602
49 *197:38 *197:40 130.305
50 *197:37 *751:A 8.75917
51 *197:37 *197:38 8.75917
52 *197:30 *197:37 1.02039
*END

*D_NET *198 0.0231989

*CONN
*I *753:Y O *C 1780.35 513.175 *L 0 *D INVX4
*I *752:A I *C 1779.9 742.045 *L 0.00241 *D CLKINVX6

*CAP
1 *753:Y 2.27324e-05
2 *752:A 2.27324e-05
3 *198:2 1.88595e-05
4 *198:3 1.88595e-05
5 *198:4 0.01103532
6 *198:5 0.01103532
7 *198:9 1.80175e-05
8 *198:10 0.000370622
9 *198:11 0.000375506
10 *198:12 0.000124944
11 *198:13 1.80175e-05
12 *198:14 1.80175e-05
13 *198:15 0.000120229

*RES
1 *198:13 *752:A 8.75791
2 *198:7 *198:13 1.01098
3 *198:14 *198:13 8.75791
4 *198:8 *198:14 1.01098
5 *198:15 *198:14 8.75791
6 *198:12 *198:15 8.00555
7 *198:4 *198:12 1.06976
8 *198:5 *198:4 770.41394
9 *198:11 *198:5 1.06976
10 *198:10 *198:11 26.0269
11 *198:2 *198:10 8.75791
12 *198:3 *198:2 0.705335
13 *198:9 *198:3 8.75791
14 *198:9 *753:Y 8.75791
15 *198:6 *198:9 1.01098
*END

*D_NET *199 0.00922081

*CONN
*I *754:Y O *C 1779.9301 422.52 *L 0 *D INVX2
*I *753:A I *C 1780.1851 513.055 *L 0.00161 *D INVX4

*CAP
1 *754:Y 4.24341e-05
2 *753:A 9.912e-06
3 *199:2 5.52929e-05
4 *199:3 2.67892e-05
5 *199:4 3.14505e-05
6 *199:5 3.24685e-05
7 *199:6 2.77536e-05
8 *199:7 0.000322328
9 *199:8 0.000322328
10 *199:9 0.00351126
11 *199:10 0.00351126
12 *199:12 3.53082e-05
13 *199:13 2.27708e-05
14 *199:14 1.78952e-05
15 *199:15 6.11329e-05
16 *199:16 1.69308e-05
17 *199:17 1.69308e-05
18 *199:18 6.99198e-05
19 *199:19 3.64869e-05
20 *199:20 6.99198e-05
21 *199:21 3.58439e-05
22 *199:22 3.46116e-05
23 *199:23 6.11329e-05
24 *199:9 *96:5 0.00016536
25 *199:10 *96:4 0.00016536
26 *199:9 *96:3 1.96e-05
27 *199:10 *96:2 1.95999904e-05
28 *199:9 *123:2 0.00023944
29 *199:10 *123:3 0.000239439993

*RES
1 *199:2 *754:Y 1.98165
2 *199:6 *199:2 8.76049
3 *199:6 *199:5 1.34052
4 *199:8 *199:5 1.07152
5 *199:8 *199:7 22.1164
6 *199:7 *199:4 1.07152
7 *199:4 *199:3 1.34052
8 *199:12 *199:3 8.76049
9 *199:12 *199:19 1.20602
10 *199:18 *199:19 1.30914
11 *199:18 *199:20 3.0442
12 *199:20 *199:21 1.30914
13 *199:21 *199:22 1.20602
14 *199:10 *199:22 8.76049
15 *199:17 *753:A 0.61422
16 *199:10 *199:9 293.821472
17 *199:16 *199:17 0.659054
18 *199:23 *199:9 8.76049
19 *199:13 *199:16 0.61422
20 *199:15 *199:23 7.51859
21 *199:14 *199:13 8.76049
22 *199:14 *199:15 8.76049
23 *199:11 *199:14 1.01772
*END

*D_NET *200 0.0215359

*CONN
*I *755:Y O *C 1649.15 331.915 *L 0 *D INVX4
*I *754:A I *C 1779.5 422.655 *L 0.000801 *D INVX2

*CAP
1 *755:Y 2.27025e-05
2 *754:A 3.51839e-05
3 *200:2 0.00365215
4 *200:3 0.00644072
5 *200:4 0.00365215
6 *200:5 0.00644072
7 *200:6 0.000178082
8 *200:7 0.000182799
9 *200:8 0.000444025
10 *200:9 4.80585e-05
11 *200:10 0.000439308

*RES
1 *200:9 *754:A 3.12361
2 *200:10 *200:9 8.758
3 *200:8 *200:10 31.5157
4 *200:7 *200:8 1.07095
5 *200:6 *200:7 11.4473
6 *200:5 *200:6 8.758
7 *200:3 *200:5 389.921265
8 *200:4 *200:3 8.758
9 *200:2 *200:4 277.108
10 *755:Y *200:2 8.758
*END

*D_NET *201 0.0228443

*CONN
*I *756:Y O *C 1430.55 331.915 *L 0 *D INVX4
*I *755:A I *C 1648.985 331.795 *L 0.00161 *D INVX4

*CAP
1 *756:Y 2.26742e-05
2 *755:A 2.26742e-05
3 *201:2 3.45267e-05
4 *201:3 0.0112531
5 *201:4 3.45267e-05
6 *201:5 0.01125724
7 *201:6 8.15929e-05
8 *201:7 3.02323e-05
9 *201:8 7.76421e-05
10 *201:9 3.02323e-05

*RES
1 *201:9 *755:A 8.75837
2 *201:7 *201:9 1.6861
3 *201:8 *201:7 8.75837
4 *201:6 *201:8 4.97635
5 *201:5 *201:6 1.0304
6 *201:3 *201:5 767.364136
7 *201:4 *756:Y 8.75837
8 *201:2 *201:3 8.75837
9 *201:2 *201:4 2.01396
*END

*D_NET *202 0.0213422

*CONN
*I *757:Y O *C 1212.15 331.915 *L 0 *D INVX4
*I *756:A I *C 1430.385 331.795 *L 0.00161 *D INVX4

*CAP
1 *757:Y 7.91952e-05
2 *756:A 9.9786e-06
3 *202:2 0.01038012
4 *202:5 9.20249e-05
5 *202:6 1.78981e-05
6 *202:7 0.00973642
7 *202:8 0.00017122
8 *202:9 1.78981e-05
9 *202:10 0.000661597
10 *202:11 1.36216e-05
11 *202:12 0.000162192

*RES
1 *202:11 *756:A 0.602646
2 *202:11 *202:12 0.344369
3 *202:8 *202:12 9.58852
4 *202:9 *202:8 8.75988
5 *202:4 *202:9 1.02235
6 *202:10 *202:9 8.75988
7 *202:2 *202:10 47.3184
8 *202:7 *202:2 705.267578
9 *757:Y *202:5 4.78888
10 *202:6 *202:7 8.75988
11 *202:6 *202:5 8.75988
12 *202:3 *202:6 1.02235
*END

*D_NET *203 0.0304866

*CONN
*I *758:Y O *C 906.365 331.505 *L 0 *D CLKINVX6
*I *757:A I *C 1211.985 331.795 *L 0.00161 *D INVX4

*CAP
1 *758:Y 2.27287e-05
2 *757:A 9.95735e-06
3 *203:2 0.01418598
4 *203:3 0.0118815
5 *203:6 1.79665e-05
6 *203:7 0.00305496
7 *203:8 0.000270364
8 *203:9 1.79665e-05
9 *203:10 0.000750481
10 *203:11 1.36372e-05
11 *203:12 0.000261056

*RES
1 *203:11 *757:A 0.600167
2 *203:11 *203:12 0.336093
3 *203:8 *203:12 15.5803
4 *203:9 *203:8 8.76243
5 *203:5 *203:9 1.02028
6 *203:10 *203:9 8.76243
7 *203:3 *203:10 53.7749
8 *203:2 *203:3 786.650574
9 *203:7 *203:2 220.849
10 *203:6 *203:7 8.76243
11 *203:6 *758:Y 8.76243
12 *203:4 *203:6 1.02028
*END

*D_NET *204 0.0337342

*CONN
*I *759:Y O *C 600.365 331.505 *L 0 *D CLKINVX6
*I *758:A I *C 905.5 331.645 *L 0.00241 *D CLKINVX6

*CAP
1 *759:Y 2.27087e-05
2 *758:A 2.27087e-05
3 *204:2 0.00449928
4 *204:3 0.01617622
5 *204:4 0.011695
6 *204:5 3.5544e-05
7 *204:6 3.5544e-05
8 *204:7 2.2215e-05
9 *204:8 1.75252e-05
10 *204:9 3.45567e-05
11 *204:10 3.92465e-05
12 *204:2 *226:8 9.918e-05
13 *204:3 *226:5 9.918e-05
14 *204:3 *226:8 8.505e-05
15 *204:4 *226:5 8.505e-05
16 *204:3 *226:5 0.0003825
17 *204:4 *226:4 0.000382500004

*RES
1 *204:9 *758:A 8.76234
2 *204:9 *204:10 2.01281
3 *204:7 *204:10 1.08475
4 *204:7 *204:8 0.674953
5 *204:2 *204:8 8.76234
6 *204:3 *204:2 295.135
7 *204:4 *204:3 789.887878
8 *204:6 *204:4 8.76234
9 *204:5 *204:6 2.02486
10 *759:Y *204:5 8.76234
*END

*D_NET *205 0.0216308

*CONN
*I *760:Y O *C 381.55 331.915 *L 0 *D INVX4
*I *759:A I *C 599.5 331.645 *L 0.00241 *D CLKINVX6

*CAP
1 *760:Y 2.27225e-05
2 *759:A 2.27225e-05
3 *205:2 0.00372109
4 *205:3 0.01071308
5 *205:4 0.00700997
6 *205:5 4.46276e-05
7 *205:6 4.46276e-05
8 *205:7 2.59919e-05
9 *205:8 2.59919e-05

*RES
1 *205:6 *759:A 8.76401
2 *205:6 *205:5 3.69296
3 *205:2 *205:5 8.76401
4 *205:3 *205:2 268.913
5 *205:4 *205:3 507.383392
6 *205:8 *205:4 8.76401
7 *205:7 *205:8 1.34712
8 *760:Y *205:7 8.76401
*END

*D_NET *206 0.0128711

*CONN
*I *761:Y O *C 251.73 332.27 *L 0 *D INVX3
*I *760:A I *C 381.385 331.795 *L 0.00161 *D INVX4

*CAP
1 *761:Y 2.26748e-05
2 *760:A 9.89775e-06
3 *206:2 3.02331e-05
4 *206:3 3.02331e-05
5 *206:4 0.00589681
6 *206:5 0.000181219
7 *206:6 4.48998e-05
8 *206:7 4.48998e-05
9 *206:8 0.00589681
10 *206:9 1.35869e-05
11 *206:10 0.000172041
12 *206:8 *225:4 0.00026391
13 *206:4 *225:5 0.000263909987

*RES
1 *206:9 *760:A 0.597232
2 *206:9 *206:10 0.339336
3 *206:5 *206:10 10.1869
4 *206:6 *206:5 8.76166
5 *206:6 *206:7 2.68754
6 *206:8 *206:7 8.76166
7 *206:4 *206:8 444.774841
8 *206:2 *206:4 8.76166
9 *206:3 *206:2 1.45915
10 *761:Y *206:3 8.76166
*END

*D_NET *207 0.0374329

*CONN
*I *899:A1 I *C 1080 891.32 *L 0.000212 *D AOI22XL
*I *906:A1 I *C 1139.2 952.88 *L 0.000212 *D AOI22XL
*I *898:A1 I *C 1203.4 1018.94 *L 0.000212 *D AOI22XL
*I *905:A1 I *C 1204 1079.42 *L 0.000212 *D AOI22XL
*I *762:Y O *C 1079.15 827.535 *L 0 *D CLKBUFX6

*CAP
1 *899:A1 6.03899e-05
2 *906:A1 2.26879e-05
3 *898:A1 2.26879e-05
4 *905:A1 3.09456e-05
5 *762:Y 2.26879e-05
6 *207:5 0.00342412
7 *207:6 7.32353e-05
8 *207:7 0.00546637
9 *207:8 0.0030255
10 *207:9 0.00204909
11 *207:10 0.0030255
12 *207:11 0.000862308
13 *207:12 0.00381057
14 *207:13 0.00319132
15 *207:14 0.0029551
16 *207:15 7.68219e-05
17 *207:16 7.68219e-05
18 *207:17 0.00242043
19 *207:18 0.00242043
20 *207:19 0.0032206
21 *207:20 5.88051e-05
22 *207:21 5.3717e-05
23 *207:22 5.8388e-05
24 *207:23 3.07788e-05
25 *207:24 3.67845e-05
26 *207:25 2.21874e-05
27 *207:26 0.000437743
28 *207:27 4.3791e-05
29 *207:28 0.000433072

*RES
1 *207:27 *905:A1 1.79762
2 *207:28 *207:27 8.75914
3 *207:26 *207:28 31.0654
4 *207:18 *207:26 1.07994
5 *207:17 *207:18 183.023
6 *207:17 *207:25 1.07994
7 *207:24 *898:A1 8.75914
8 *207:24 *207:25 0.676672
9 *207:23 *207:24 1.34993
10 *207:16 *207:23 1.07994
11 *207:15 *207:16 5.87474
12 *207:15 *207:22 1.07994
13 *207:21 *207:22 3.36285
14 *207:20 *207:21 8.75914
15 *207:19 *207:20 3.87207
16 *207:13 *207:19 192.346
17 *207:14 *207:13 8.75914
18 *207:12 *906:A1 8.75914
19 *207:12 *207:14 222.95
20 *207:11 *207:12 62.9954
21 *207:10 *207:11 8.75914
22 *207:8 *207:10 180.962
23 *207:6 *899:A1 3.59524
24 *207:9 *207:8 8.75914
25 *207:7 *207:6 8.75914
26 *207:7 *207:9 155.368
27 *207:5 *207:7 223.971451
28 *762:Y *207:5 8.75914
*END

*D_NET *208 0.0212333

*CONN
*I *909:A1 I *C 584.2 641.66 *L 0.000212 *D AOI22XL
*I *763:Y O *C 584.73 424.61 *L 0 *D INVX3

*CAP
1 *909:A1 2.27548e-05
2 *763:Y 2.27548e-05
3 *208:2 0.00994159
4 *208:3 0.00992323
5 *208:4 0.000511681
6 *208:5 0.000525333
7 *208:6 0.000140625
8 *208:7 0.000145328

*RES
1 *208:6 *763:Y 8.76584
2 *208:6 *208:7 8.74378
3 *208:4 *208:7 1.08057
4 *208:3 *909:A1 8.76584
5 *208:4 *208:5 36.9929
6 *208:2 *208:3 722.613586
7 *208:2 *208:5 2.16114
*END

*D_NET *209 0.0224473

*CONN
*I *908:A1 I *C 1136 700.88 *L 0.000212 *D AOI22XL
*I *897:A1 I *C 1073.8 765.86 *L 0.000212 *D AOI22XL
*I *764:Y O *C 1136.15 656.815 *L 0 *D INVX4
*I *762:A I *C 1079.7 827.545 *L 0.000787 *D CLKBUFX6

*CAP
1 *908:A1 8.76514e-05
2 *897:A1 2.26629e-05
3 *764:Y 2.26629e-05
4 *762:A 2.26629e-05
5 *209:4 0.000117284
6 *209:5 0.000117284
7 *209:6 0.000315388
8 *209:7 0.00300226
9 *209:8 0.00302487438
10 *209:9 0.00302487438
11 *209:10 8.38666e-05
12 *209:11 0.00288022
13 *209:12 0.00270958
14 *209:13 0.00288022
15 *209:14 0.00206791
16 *209:15 0.00206791

*RES
1 *209:14 *764:Y 8.75933
2 *209:14 *209:15 155.331
3 *908:A1 *209:15 8.75933
4 *209:10 *908:A1 4.19397
5 *209:11 *209:10 8.75933
6 *209:9 *762:A 8.75933
7 *209:11 *209:13 220.662
8 *209:4 *897:A1 8.75933
9 *209:8 *209:9 229.620636
10 *209:12 *209:13 8.75933
11 *209:5 *209:4 11.6149
12 *209:7 *209:8 8.75933
13 *209:7 *209:12 164.188
14 *209:6 *209:5 8.75933
15 *209:6 *209:7 17.9777
*END

*D_NET *210 0.022742

*CONN
*I *765:Y O *C 720.55 336.885 *L 0 *D INVX4
*I *763:A I *C 584.1 423.985 *L 0.0012 *D INVX3

*CAP
1 *765:Y 2.26896e-05
2 *763:A 2.26896e-05
3 *210:2 0.00685237
4 *210:3 0.000254605
5 *210:4 0.000254605
6 *210:5 0.00424139
7 *210:6 0.00685237
8 *210:7 0.00424139

*RES
1 *210:5 *765:Y 8.76059
2 *210:4 *763:A 8.76059
3 *210:5 *210:7 289.218
4 *210:3 *210:4 17.4901
5 *210:6 *210:7 8.76059
6 *210:2 *210:3 8.76059
7 *210:2 *210:6 408.055542
*END

*D_NET *211 0.00878071

*CONN
*I *766:Y O *C 1136.33 564.34 *L 0 *D INVX2
*I *764:A I *C 1135.985 656.695 *L 0.00161 *D INVX4

*CAP
1 *766:Y 2.00961e-05
2 *764:A 2.2646e-05
3 *211:2 0.000127316
4 *211:3 0.000109041
5 *211:4 3.29673e-05
6 *211:5 0.00396057
7 *211:6 0.00397884
8 *211:6 *336:3 0.00026462
9 *211:5 *336:4 0.000264619999

*RES
1 *211:4 *766:Y 1.19655
2 *211:5 *211:4 8.76007
3 *211:3 *764:A 8.76007
4 *211:5 *211:6 318.767456
5 *211:2 *211:3 7.73377
6 *211:2 *211:6 2.15962
*END

*D_NET *212 0.0324835

*CONN
*I *907:A1 I *C 765.6 337.28 *L 0.000212 *D AOI22XL
*I *767:Y O *C 1047.5649 334.925 *L 0 *D CLKINVX6
*I *765:A I *C 720.385 337.005 *L 0.00161 *D INVX4

*CAP
1 *907:A1 2.25731e-05
2 *767:Y 2.25731e-05
3 *765:A 2.25731e-05
4 *212:3 2.37824e-05
5 *212:4 2.37824e-05
6 *212:5 0.0114313
7 *212:6 0.00189977
8 *212:7 0.00038334
9 *212:8 0.000379309
10 *212:9 2.76118e-05
11 *212:10 2.76118e-05
12 *212:11 7.57812e-05
13 *212:12 7.57812e-05
14 *212:13 0.00368405
15 *212:14 0.0132083
16 *212:13 *106:4 0.0001644
17 *212:14 *106:5 0.0001644
18 *212:14 *106:5 0.0004231
19 *212:5 *106:8 0.000423100008

*RES
1 *212:12 *767:Y 8.76324
2 *212:10 *907:A1 8.76324
3 *212:12 *212:11 9.40176
4 *212:10 *212:9 1.35412
5 *212:13 *212:11 8.76324
6 *212:5 *212:9 8.76324
7 *212:14 *212:13 278.001
8 *212:5 *212:14 721.491638
9 *212:6 *212:5 136.48
10 *212:7 *212:6 1.02385
11 *212:8 *212:7 26.3007
12 *212:3 *212:8 8.76324
13 *212:4 *212:3 1.91558
14 *765:A *212:4 8.76324
*END

*D_NET *213 0.0179158

*CONN
*I *768:Y O *C 1135.9301 383.57 *L 0 *D INVX3
*I *766:A I *C 1135.9 564.205 *L 0.000801 *D INVX2

*CAP
1 *768:Y 2.2612e-05
2 *766:A 2.2612e-05
3 *213:2 0.00775853
4 *213:3 0.00775853
5 *213:4 0.000283775
6 *213:5 0.000288392
7 *213:6 0.000394112
8 *213:7 0.000389377
9 *213:7 *336:3 2.637e-05
10 *213:6 *336:4 2.637e-05
11 *213:5 *336:4 1.774e-05
12 *213:4 *336:5 1.774e-05
13 *213:3 *336:3 5.92e-06
14 *213:2 *336:4 5.92e-06
15 *213:3 *336:4 0.00044889
16 *213:2 *336:5 0.000448889998

*RES
1 *213:7 *766:A 8.75645
2 *213:6 *213:7 29.7178
3 *213:4 *768:Y 8.75645
4 *213:3 *213:6 1.08327
5 *213:4 *213:5 20.9342
6 *213:2 *213:3 591.610779
7 *213:2 *213:5 1.08327
*END

*D_NET *214 0.01421

*CONN
*I *769:Y O *C 1135.33 332.27 *L 0 *D INVX3
*I *768:A I *C 1135.3 382.945 *L 0.0012 *D INVX3
*I *767:A I *C 1046.7 335.065 *L 0.00241 *D CLKINVX6

*CAP
1 *769:Y 2.2701e-05
2 *768:A 2.2701e-05
3 *767:A 2.2701e-05
4 *214:3 0.00200518
5 *214:4 0.00202344
6 *214:5 0.000248045
7 *214:6 0.000439441
8 *214:7 0.000216597
9 *214:8 0.00454957
10 *214:9 0.00454957
11 *214:10 5.50516e-05
12 *214:11 5.50516e-05

*RES
1 *214:3 *768:A 8.76105
2 *214:4 *214:3 151.275
3 *214:7 *769:Y 8.76105
4 *214:5 *214:4 2.16032
5 *214:7 *214:6 13.4793
6 *214:6 *214:5 15.5342
7 *214:8 *214:6 8.76105
8 *214:9 *214:8 313.922424
9 *214:11 *214:9 8.76105
10 *214:10 *214:11 3.37221
11 *767:A *214:10 8.76105
*END

*D_NET *215 0.031839

*CONN
*I *938:A0 I *C 252.9 393.205 *L 0.000211 *D OA21X1
*I *770:Y O *C 426.365 251.795 *L 0 *D CLKINVX6

*CAP
1 *938:A0 2.13086e-05
2 *770:Y 2.27198e-05
3 *215:2 2.69533e-05
4 *215:3 3.16102e-05
5 *215:4 3.16102e-05
6 *215:5 2.69533e-05
7 *215:6 0.000236653
8 *215:7 0.000236653
9 *215:8 0.00924809
10 *215:9 3.41503e-05
11 *215:10 0.00633713
12 *215:11 0.00924809
13 *215:12 0.00633713

*RES
1 *215:10 *770:Y 8.75975
2 *215:10 *215:12 480.914
3 *215:9 *938:A0 1.18118
4 *215:11 *215:12 8.75975
5 *215:2 *215:9 8.75975
6 *215:8 *215:11 519.528748
7 *215:3 *215:2 1.34765
8 *215:5 *215:8 8.75975
9 *215:6 *215:3 1.07812
10 *215:5 *215:4 1.34765
11 *215:7 *215:6 15.5456
12 *215:7 *215:4 1.07812
*END

*D_NET *216 0.0301874

*CONN
*I *771:Y O *C 734.165 251.795 *L 0 *D CLKINVX6
*I *770:A I *C 425.5 251.655 *L 0.00241 *D CLKINVX6

*CAP
1 *771:Y 2.26911e-05
2 *770:A 2.26911e-05
3 *216:4 1.7797e-05
4 *216:5 0.000106559
5 *216:6 0.00471686
6 *216:7 0.01457904
7 *216:8 0.000110564
8 *216:9 0.000354604
9 *216:10 0.00988799
10 *216:11 1.7797e-05
11 *216:12 0.000350822

*RES
1 *216:3 *216:11 1.02299
2 *216:11 *771:Y 8.7607
3 *216:12 *216:11 8.7607
4 *216:9 *216:12 24.6823
5 *216:9 *216:10 1.02299
6 *216:7 *216:10 713.219177
7 *216:6 *216:7 339.741
8 *216:6 *216:8 1.02299
9 *216:5 *216:8 7.05209
10 *216:4 *770:A 8.7607
11 *216:4 *216:5 8.7607
12 *216:2 *216:4 1.02299
*END

*D_NET *217 0.0301715

*CONN
*I *772:Y O *C 1041.965 251.795 *L 0 *D CLKINVX6
*I *771:A I *C 733.3 251.655 *L 0.00241 *D CLKINVX6

*CAP
1 *772:Y 2.27398e-05
2 *771:A 2.27398e-05
3 *217:4 1.7842e-05
4 *217:5 0.0108589
5 *217:6 0.01146346
6 *217:7 0.00385754
7 *217:8 0.00326998
8 *217:9 0.000328677
9 *217:10 1.7842e-05
10 *217:11 0.00031171

*RES
1 *217:3 *217:10 1.01649
2 *217:10 *772:Y 8.76569
3 *217:11 *217:10 8.76569
4 *217:9 *217:11 21.8604
5 *217:8 *217:9 2.04493
6 *217:7 *217:8 234.222
7 *217:6 *217:7 44.3187
8 *217:5 *217:6 783.721924
9 *217:4 *771:A 8.76569
10 *217:4 *217:5 8.76569
11 *217:2 *217:4 1.01649
*END

*D_NET *218 0.023878

*CONN
*I *773:Y O *C 1259.55 251.385 *L 0 *D INVX4
*I *772:A I *C 1041.1 251.655 *L 0.00241 *D CLKINVX6

*CAP
1 *773:Y 2.27652e-05
2 *772:A 2.27652e-05
3 *218:3 1.75256e-05
4 *218:4 0.0118366
5 *218:5 1.75256e-05
6 *218:6 5.31188e-05
7 *218:7 0.01184062
8 *218:8 1.7887e-05
9 *218:9 4.9144e-05

*RES
1 *218:5 *772:A 8.7565
2 *218:3 *218:5 0.666382
3 *218:4 *218:3 8.7565
4 *218:4 *218:7 766.175842
5 *218:6 *218:7 1.01711
6 *218:6 *218:9 3.86969
7 *218:8 *218:9 8.7565
8 *218:8 *773:Y 8.7565
9 *218:2 *218:8 1.01711
*END

*D_NET *219 0.030311

*CONN
*I *932:A0 I *C 250.7 519.745 *L 0.000211 *D OA21X1
*I *774:Y O *C 558.965 518.555 *L 0 *D CLKINVX6

*CAP
1 *932:A0 2.26222e-05
2 *774:Y 2.26222e-05
3 *219:2 8.2948e-05
4 *219:3 8.2948e-05
5 *219:5 0.0108692
6 *219:6 0.01335626
7 *219:7 0.00397335
8 *219:8 0.000198505
9 *219:9 0.00149021
10 *219:10 1.79347e-05
11 *219:11 0.000194428

*RES
1 *219:2 *932:A0 8.76243
2 *219:3 *219:2 5.4135
3 *219:5 *219:3 8.76243
4 *219:7 *219:9 107.106
5 *219:6 *219:7 180.974
6 *219:5 *219:6 786.650574
7 *219:8 *219:9 1.02028
8 *219:8 *219:11 13.4557
9 *219:10 *219:11 8.76243
10 *219:10 *774:Y 8.76243
11 *219:4 *219:10 1.02028
*END

*D_NET *220 0.0301773

*CONN
*I *775:Y O *C 866.765 518.555 *L 0 *D CLKINVX6
*I *774:A I *C 558.1 518.415 *L 0.00241 *D CLKINVX6

*CAP
1 *775:Y 2.27059e-05
2 *774:A 2.27059e-05
3 *220:3 1.78895e-05
4 *220:4 0.0108711
5 *220:5 0.01503062
6 *220:6 1.74308e-05
7 *220:7 0.00417743
8 *220:8 1.74308e-05

*RES
1 *220:8 *775:Y 8.76243
2 *220:6 *220:8 0.672187
3 *220:7 *220:6 8.76243
4 *220:5 *220:7 302.232
5 *220:4 *220:5 786.650574
6 *220:3 *774:A 8.76243
7 *220:3 *220:4 8.76243
8 *220:2 *220:3 1.02028
*END

*D_NET *221 0.0217011

*CONN
*I *776:Y O *C 1086.35 518.145 *L 0 *D INVX4
*I *775:A I *C 865.9 518.415 *L 0.00241 *D CLKINVX6

*CAP
1 *776:Y 2.27464e-05
2 *775:A 2.27464e-05
3 *221:2 1.96813e-05
4 *221:3 1.96813e-05
5 *221:5 1.79067e-05
6 *221:6 0.000214074
7 *221:7 0.00480691
8 *221:8 0.01057224
9 *221:9 0.000217946
10 *221:10 0.00578711

*RES
1 *221:3 *776:Y 8.7624
2 *221:3 *221:2 0.734421
3 *221:10 *221:2 8.7624
4 *221:8 *221:10 414.922424
5 *221:7 *221:8 347.577
6 *221:7 *221:9 1.02566
7 *221:6 *221:9 14.8657
8 *221:5 *775:A 8.7624
9 *221:5 *221:6 8.7624
10 *221:4 *221:5 1.01933
*END

*D_NET *222 0.022344

*CONN
*I *777:Y O *C 1262.95 466.845 *L 0 *D INVX4
*I *776:A I *C 1086.1851 518.265 *L 0.00161 *D INVX4

*CAP
1 *777:Y 2.26252e-05
2 *776:A 2.26252e-05
3 *222:2 6.27884e-05
4 *222:3 6.27884e-05
5 *222:4 5.2346e-05
6 *222:5 4.76603e-05
7 *222:6 0.00877364
8 *222:7 0.00226052
9 *222:8 0.0022652
10 *222:9 0.00877364

*RES
1 *222:3 *777:Y 8.7596
2 *222:3 *222:2 4.05283
3 *222:9 *222:2 8.7596
4 *222:6 *222:9 529.09613
5 *222:7 *222:6 8.7596
6 *222:5 *776:A 8.7596
7 *222:7 *222:8 171.511
8 *222:4 *222:5 5.81282
9 *222:4 *222:8 1.08183
*END

*D_NET *223 0.0231533

*CONN
*I *936:A1N I *C 1263.7 249.565 *L 0.00021 *D OAI2BB1X1
*I *778:Y O *C 1269.75 249.835 *L 0 *D INVX4
*I *777:A I *C 1262.785 466.965 *L 0.00161 *D INVX4

*CAP
1 *936:A1N 2.27411e-05
2 *778:Y 2.27411e-05
3 *777:A 2.27411e-05
4 *223:3 0.0102951
5 *223:4 0.01034958
6 *223:5 6.88551e-05
7 *223:6 8.71743e-05
8 *223:7 0.000269419
9 *223:8 0.000269419
10 *223:9 0.000280158
11 *223:10 2.68472e-05
12 *223:12 0.000333063
13 *223:13 1.78455e-05
14 *223:3 *161:2 0.00053921
15 *223:4 *161:3 0.00053921
16 *223:5 *161:4 4.66e-06
17 *223:6 *161:5 4.66003075e-06

*RES
1 *223:5 *777:A 8.76176
2 *223:6 *223:5 4.88922
3 *223:6 *223:3 2.15903
4 *223:4 *223:3 748.644897
5 *223:10 *936:A1N 8.76176
6 *223:4 *223:12 6.45423
7 *223:10 *223:9 1.49647
8 *223:9 *223:12 16.7467
9 *223:8 *223:9 8.76176
10 *223:8 *223:7 21.3389
11 *223:13 *223:7 8.76176
12 *223:13 *778:Y 8.76176
13 *223:11 *223:13 1.05095
*END

*D_NET *224 0.0057015

*CONN
*I *779:Y O *C 1323.53 249.7 *L 0 *D INVX2
*I *778:A I *C 1269.585 249.715 *L 0.00161 *D INVX4

*CAP
1 *779:Y 2.26595e-05
2 *778:A 2.26595e-05
3 *224:3 1.11941e-05
4 *224:4 2.94777e-05
5 *224:5 4.50476e-05
6 *224:6 2.6764e-05
7 *224:7 0.00222304
8 *224:8 1.78766e-05
9 *224:9 0.00222304
10 *224:9 *258:7 0.00015438
11 *224:7 *258:8 0.000154379997
12 *224:9 *310:7 0.00038549
13 *224:7 *310:8 0.000385489987

*RES
1 *224:3 *778:A 8.7597
2 *224:3 *224:4 0.1817
3 *224:4 *224:5 2.22436
4 *224:5 *224:6 1.33637
5 *224:7 *224:6 8.7597
6 *224:7 *224:9 192.062729
7 *224:8 *224:9 8.7597
8 *224:8 *779:Y 8.7597
9 *224:2 *224:8 1.05503
*END

*D_NET *225 0.0311826

*CONN
*I *934:B I *C 250.565 333.665 *L 0.000392 *D NOR2BX1
*I *780:Y O *C 560.365 331.505 *L 0 *D CLKINVX6

*CAP
1 *934:B 2.27415e-05
2 *780:Y 2.27415e-05
3 *225:2 8.74831e-05
4 *225:3 8.29758e-05
5 *225:4 0.01342671
6 *225:5 0.0109311
7 *225:6 2.21269e-05
8 *225:7 2.66342e-05
9 *225:9 0.00398694
10 *225:10 0.0014952
11 *225:11 0.000268186
12 *225:12 1.78244e-05
13 *225:13 0.000264088
14 *225:4 *206:8 0.00026391
15 *225:5 *206:4 0.000263909987

*RES
1 *225:6 *934:B 8.75965
2 *225:7 *225:6 1.49614
3 *225:7 *225:2 1.07384
4 *225:3 *225:2 5.4054
5 *225:5 *225:3 8.75965
6 *225:9 *225:10 107.541
7 *225:4 *225:9 181.708
8 *225:5 *225:4 790.733093
9 *225:10 *225:11 1.02558
10 *225:11 *225:13 18.4845
11 *225:12 *225:13 8.75965
12 *225:12 *780:Y 8.75965
13 *225:8 *225:12 1.02558
*END

*D_NET *226 0.0317207

*CONN
*I *781:Y O *C 870.365 331.505 *L 0 *D CLKINVX6
*I *780:A I *C 559.5 331.645 *L 0.00241 *D CLKINVX6

*CAP
1 *781:Y 2.25502e-05
2 *780:A 2.25502e-05
3 *226:3 1.79007e-05
4 *226:4 0.0111363
5 *226:5 0.01523532
6 *226:6 1.79007e-05
7 *226:7 1.79007e-05
8 *226:8 0.00411692
9 *226:8 *204:2 9.918e-05
10 *226:5 *204:3 9.918e-05
11 *226:8 *204:3 8.505e-05
12 *226:5 *204:4 8.505e-05
13 *226:5 *204:3 0.0003825
14 *226:4 *204:4 0.000382500004

*RES
1 *226:6 *781:Y 8.76636
2 *226:6 *226:7 0.675263
3 *226:8 *226:7 8.76636
4 *226:5 *226:8 311.296
5 *226:4 *226:5 790.250549
6 *226:3 *780:A 8.76636
7 *226:3 *226:4 8.76636
8 *226:2 *226:3 1.02495
*END

*D_NET *227 0.0274092

*CONN
*I *928:A1 I *C 1134.5 330.695 *L 0.000212 *D AOI21XL
*I *782:Y O *C 1137.365 330.455 *L 0 *D CLKINVX6
*I *781:A I *C 869.5 331.645 *L 0.00241 *D CLKINVX6

*CAP
1 *928:A1 2.26974e-05
2 *782:Y 2.26974e-05
3 *781:A 2.26974e-05
4 *227:3 5.5066e-05
5 *227:4 5.5066e-05
6 *227:5 0.00844897
7 *227:6 0.01293458
8 *227:7 0.00463719
9 *227:10 1.79606e-05
10 *227:11 1.79606e-05
11 *227:12 0.000140527
12 *227:5 *23:8 0.00030932
13 *227:6 *23:4 0.00030932
14 *227:6 *23:4 0.00020754
15 *227:7 *23:6 0.000207540019

*RES
1 *227:3 *781:A 8.76094
2 *227:4 *227:3 3.36752
3 *227:9 *227:11 1.01746
4 *227:11 *782:Y 8.76094
5 *227:7 *227:4 8.76094
6 *227:12 *227:11 8.76094
7 *227:6 *227:5 590.089478
8 *227:7 *227:6 350.429
9 *227:5 *227:12 8.49982
10 *227:10 *928:A1 8.76094
11 *227:10 *227:5 8.76094
12 *227:8 *227:10 1.01746
*END

*D_NET *228 0.0205989

*CONN
*I *783:Y O *C 1261.55 247.965 *L 0 *D INVX4
*I *782:A I *C 1136.5 330.315 *L 0.00241 *D CLKINVX6

*CAP
1 *783:Y 2.26515e-05
2 *782:A 2.26515e-05
3 *228:2 0.00639855
4 *228:3 0.000274551
5 *228:4 0.000274551
6 *228:5 0.00339957
7 *228:6 0.00639855
8 *228:7 0.00339489
9 *228:8 7.2348e-05
10 *228:9 5.87766e-05
11 *228:10 0.000102615
12 *228:11 0.000116186
13 *228:12 2.9193e-05
14 *228:13 3.38796e-05

*RES
1 *228:12 *783:Y 8.76356
2 *228:12 *228:13 1.39113
3 *228:10 *228:13 1.10953
4 *228:10 *228:11 8.00323
5 *228:8 *228:11 2.15147
6 *228:8 *228:9 6.36992
7 *228:5 *228:9 1.07573
8 *228:4 *782:A 8.76356
9 *228:5 *228:7 257.331
10 *228:3 *228:4 18.9126
11 *228:6 *228:7 8.76356
12 *228:2 *228:3 8.76356
13 *228:2 *228:6 369.105927
*END

*D_NET *229 0.0229642

*CONN
*I *919:B1 I *C 1392.98 1510.15 *L 0.000212 *D AOI22XL
*I *784:Y O *C 1205.55 1465.485 *L 0 *D INVX4

*CAP
1 *919:B1 2.26605e-05
2 *784:Y 2.26605e-05
3 *229:2 8.29942e-05
4 *229:3 8.29942e-05
5 *229:4 0.000302518
6 *229:5 0.000297844
7 *229:6 0.00160649
8 *229:7 0.00928161
9 *229:8 0.00160182
10 *229:9 0.00016613
11 *229:10 0.000170804
12 *229:11 0.00928161
13 *229:12 2.43601e-05
14 *229:13 1.96863e-05

*RES
1 *229:13 *919:B1 8.76356
2 *229:12 *229:13 0.736002
3 *229:2 *229:12 1.07833
4 *229:3 *229:2 5.22904
5 *229:4 *229:3 1.07833
6 *229:5 *229:4 20.4283
7 *229:11 *229:5 8.76356
8 *229:7 *229:11 560.867737
9 *229:9 *784:Y 8.76356
10 *229:8 *229:7 8.76356
11 *229:9 *229:10 10.7576
12 *229:6 *229:8 121.064
13 *229:6 *229:10 1.07833
*END

*D_NET *230 0.0200479

*CONN
*I *785:Y O *C 1205.55 1250.025 *L 0 *D INVX4
*I *784:A I *C 1205.385 1465.605 *L 0.00161 *D INVX4

*CAP
1 *785:Y 2.27161e-05
2 *784:A 2.27161e-05
3 *230:2 0.000267248
4 *230:3 0.000248986
5 *230:4 1.75196e-05
6 *230:5 2.22707e-05
7 *230:6 0.00971639
8 *230:7 0.00973005

*RES
1 *230:4 *785:Y 8.76276
2 *230:4 *230:5 0.669693
3 *230:5 *230:6 1.07832
4 *230:3 *784:A 8.76276
5 *230:6 *230:7 743.881165
6 *230:2 *230:3 17.0488
7 *230:2 *230:7 2.15664
*END

*D_NET *231 0.0416206

*CONN
*I *906:B1 I *C 1139.58 952.69 *L 0.000212 *D AOI22XL
*I *898:B1 I *C 1203.78 1019.13 *L 0.000212 *D AOI22XL
*I *905:B1 I *C 1204.38 1079.23 *L 0.000212 *D AOI22XL
*I *786:Y O *C 1138.715 891.155 *L 0 *D CLKBUFX8
*I *785:A I *C 1205.385 1250.145 *L 0.00161 *D INVX4

*CAP
1 *906:B1 2.2674e-05
2 *898:B1 2.2674e-05
3 *905:B1 2.2674e-05
4 *786:Y 2.2674e-05
5 *785:A 2.2674e-05
6 *231:5 4.06529e-05
7 *231:6 5.42802e-05
8 *231:7 8.93218e-05
9 *231:8 5.3135e-05
10 *231:9 0.00297098
11 *231:10 0.00547829
12 *231:11 0.00251876
13 *231:12 8.79476e-05
14 *231:13 8.79476e-05
15 *231:15 0.000396451
16 *231:16 0.000401147
17 *231:17 0.00376297
18 *231:18 1.78644e-05
19 *231:19 0.00376297
20 *231:20 2.67965e-05
21 *231:21 4.92415e-05
22 *231:22 6.28688e-05
23 *231:23 3.09191e-05
24 *231:24 6.28688e-05
25 *231:25 0.00246528
26 *231:26 0.00245165
27 *231:27 0.000426225
28 *231:28 0.000408017
29 *231:29 0.000382023
30 *231:30 0.000422904
31 *231:31 0.00749112
32 *231:32 0.00750475

*RES
1 *231:28 *785:A 8.76145
2 *231:27 *231:28 29.1961
3 *231:23 *905:B1 8.76145
4 *231:27 *231:32 2.15976
5 *231:23 *231:24 1.35531
6 *231:31 *231:32 573.044067
7 *231:24 *231:30 3.23526
8 *231:30 *231:31 1.07551
9 *231:29 *231:30 29.1961
10 *231:26 *231:29 1.07551
11 *231:25 *231:26 185.048
12 *231:22 *231:25 2.15976
13 *231:21 *231:22 2.70188
14 *231:5 *231:21 1.07551
15 *231:6 *231:5 3.96976
16 *231:20 *898:B1 8.76145
17 *231:7 *231:6 2.15976
18 *231:7 *231:20 1.34657
19 *231:8 *231:7 3.37517
20 *231:15 *786:Y 8.76145
21 *231:19 *231:8 8.76145
22 *231:15 *231:16 28.2517
23 *231:17 *231:19 196.538
24 *231:16 *231:11 1.07551
25 *231:9 *231:17 8.76145
26 *231:11 *231:10 191.764
27 *231:10 *231:9 229.809
28 *231:13 *231:10 8.76145
29 *231:13 *231:12 4.97531
30 *231:18 *906:B1 8.76145
31 *231:18 *231:12 8.76145
32 *231:14 *231:18 1.02304
*END

*D_NET *232 0.0197851

*CONN
*I *899:B1 I *C 1080.38 891.13 *L 0.000212 *D AOI22XL
*I *787:Y O *C 1080.73 743.51 *L 0 *D INVX3
*I *786:A I *C 1139.3 891.005 *L 0.000787 *D CLKBUFX8

*CAP
1 *899:B1 2.2617e-05
2 *787:Y 2.2617e-05
3 *786:A 2.2617e-05
4 *232:3 0.00655843
5 *232:4 0.00655843
6 *232:5 0.0025291
7 *232:6 0.0025251
8 *232:7 0.000259395
9 *232:8 0.000263298
10 *232:9 3.53266e-05
11 *232:10 5.0538e-05
12 *232:11 2.67201e-05
13 *232:12 0.000261997
14 *232:13 0.0002667
15 *232:14 2.59195e-05
16 *232:15 2.59195e-05
17 *232:5 *128:7 0.00015095
18 *232:6 *128:5 0.00015095
19 *232:7 *128:8 1.415e-05
20 *232:8 *128:6 1.415e-05

*RES
1 *232:14 *786:A 8.75859
2 *232:14 *232:15 1.34278
3 *232:7 *232:15 8.75859
4 *232:8 *232:7 17.769
5 *232:8 *232:5 1.02234
6 *232:12 *787:Y 8.75859
7 *232:6 *232:5 191.934
8 *232:12 *232:13 18.1581
9 *232:11 *232:6 8.75859
10 *232:4 *232:13 1.08338
11 *232:10 *899:B1 8.75859
12 *232:10 *232:11 1.35041
13 *232:4 *232:3 500.002686
14 *232:9 *232:10 3.1357
15 *232:9 *232:3 1.08338
*END

*D_NET *233 0.00914322

*CONN
*I *788:Y O *C 1080.53 646.42 *L 0 *D INVX2
*I *787:A I *C 1080.1 744.135 *L 0.0012 *D INVX3

*CAP
1 *788:Y 2.26501e-05
2 *787:A 2.26501e-05
3 *233:2 0.00392692
4 *233:3 0.00392225
5 *233:4 0.000622039
6 *233:5 0.000626713

*RES
1 *233:4 *788:Y 8.76256
2 *233:3 *787:A 8.76256
3 *233:4 *233:5 45.7357
4 *233:2 *233:3 298.628601
5 *233:2 *233:5 1.07994
*END

*D_NET *234 0.0293554

*CONN
*I *929:A1 I *C 1326 646.16 *L 0.000212 *D AOI22XL
*I *789:Y O *C 1079.365 601.685 *L 0 *D CLKINVX6
*I *788:A I *C 1080.1 646.285 *L 0.000801 *D INVX2

*CAP
1 *929:A1 3.00848e-05
2 *789:Y 4.95184e-05
3 *788:A 2.26103e-05
4 *234:3 0.012246
5 *234:5 6.24119e-05
6 *234:6 0.00207959
7 *234:7 0.00209005
8 *234:8 0.0113141
9 *234:9 1.73782e-05
10 *234:10 3.28877e-05
11 *234:11 1.79388e-05
12 *234:12 0.000949633
13 *234:13 3.41957e-05
14 *234:14 0.000182377
15 *234:15 4.40994e-05
16 *234:16 0.000182377

*RES
1 *234:15 *929:A1 1.79397
2 *789:Y *234:5 2.99799
3 *234:15 *234:16 1.28829
4 *234:6 *234:5 8.76519
5 *234:9 *788:A 8.76519
6 *234:14 *234:16 10.1859
7 *234:6 *234:7 156.714
8 *234:7 *234:9 0.674246
9 *234:13 *234:14 1.28829
10 *234:8 *234:7 8.76519
11 *234:10 *234:13 1.20401
12 *234:3 *234:12 68.1711
13 *234:8 *234:3 789.060059
14 *234:11 *234:10 8.76519
15 *234:11 *234:12 8.76519
16 *234:4 *234:11 1.02341
*END

*D_NET *235 0.0294898

*CONN
*I *790:Y O *C 1043.765 337.295 *L 0 *D CLKINVX6
*I *789:A I *C 1078.5 601.825 *L 0.00241 *D CLKINVX6

*CAP
1 *790:Y 2.26652e-05
2 *789:A 2.26652e-05
3 *235:2 0.00532701
4 *235:3 0.00200537
5 *235:4 0.00532701
6 *235:5 0.00200537
7 *235:6 0.00738988
8 *235:7 0.00738988

*RES
1 *235:7 *789:A 8.76182
2 *235:6 *235:7 562.955261
3 *235:5 *235:6 8.76182
4 *235:3 *235:5 106.061
5 *235:4 *235:3 8.76182
6 *235:2 *235:4 372.609
7 *790:Y *235:2 8.76182
*END

*D_NET *236 0.0306869

*CONN
*I *902:B1 I *C 1012.78 335.13 *L 0.000212 *D AOI22XL
*I *930:A1 I *C 951 333.86 *L 0.000212 *D AOI22XL
*I *791:Y O *C 864.165 460.415 *L 0 *D CLKINVX6
*I *790:A I *C 1042.9 337.155 *L 0.00241 *D CLKINVX6

*CAP
1 *902:B1 2.26691e-05
2 *930:A1 0.0001039
3 *791:Y 2.26691e-05
4 *790:A 2.26691e-05
5 *236:4 1.78011e-05
6 *236:5 1.78011e-05
7 *236:6 0.000120175
8 *236:7 0.00221619
9 *236:8 0.00313001
10 *236:9 0.000963291
11 *236:10 0.00147393
12 *236:11 0.00155552
13 *236:12 0.00447468
14 *236:13 0.00475695
15 *236:14 0.0047616
16 *236:15 0.000345486
17 *236:16 0.000340836
18 *236:17 0.000116688
19 *236:18 5.92157e-05
20 *236:19 0.000812019
21 *236:20 0.00447468
22 *236:21 0.000759705
23 *236:22 5.92157e-05
24 *236:23 5.92157e-05

*RES
1 *236:23 *790:A 8.76182
2 *236:22 *236:23 3.36396
3 *236:10 *236:22 8.76182
4 *236:5 *902:B1 8.76182
5 *236:11 *236:10 106.25
6 *236:5 *236:4 0.676117
7 *236:6 *236:11 7.18236
8 *236:17 *930:A1 5.39231
9 *236:7 *236:4 8.76182
10 *236:7 *236:6 2.13365
11 *236:18 *236:17 8.76182
12 *236:8 *236:7 158.134
13 *236:9 *236:8 68.8808
14 *236:16 *791:Y 8.76182
15 *236:18 *236:19 3.36396
16 *236:19 *236:9 8.76182
17 *236:15 *236:16 24.2128
18 *236:19 *236:21 55.824
19 *236:14 *236:15 1.08068
20 *236:20 *236:21 8.76182
21 *236:13 *236:14 363.19696
22 *236:12 *236:20 255.866
23 *236:12 *236:13 8.76182
*END

*D_NET *237 0.0300792

*CONN
*I *792:Y O *C 556.965 460.415 *L 0 *D CLKINVX6
*I *791:A I *C 863.3 460.275 *L 0.00241 *D CLKINVX6

*CAP
1 *792:Y 2.26321e-05
2 *791:A 2.26321e-05
3 *237:2 0.01498178
4 *237:4 1.78314e-05
5 *237:5 0.010871
6 *237:6 1.73742e-05
7 *237:7 0.00412865
8 *237:8 1.73742e-05

*RES
1 *237:8 *791:A 8.76243
2 *237:6 *237:8 0.672187
3 *237:7 *237:6 8.76243
4 *237:2 *237:7 298.691
5 *237:5 *237:2 786.650574
6 *237:4 *237:5 8.76243
7 *237:4 *792:Y 8.76243
8 *237:3 *237:4 1.02028
*END

*D_NET *238 0.021476

*CONN
*I *793:Y O *C 337.35 460.005 *L 0 *D INVX4
*I *792:A I *C 556.1 460.275 *L 0.00241 *D CLKINVX6

*CAP
1 *793:Y 0.000117962
2 *792:A 2.25919e-05
3 *238:2 0.01057542
4 *238:5 0.000130872
5 *238:6 1.79121e-05
6 *238:7 0.00900948
7 *238:8 1.79121e-05
8 *238:9 0.00158385

*RES
1 *238:8 *792:A 8.76247
2 *238:4 *238:8 1.02561
3 *238:9 *238:8 8.76247
4 *238:2 *238:9 114.181
5 *238:7 *238:2 652.565063
6 *793:Y *238:5 7.18921
7 *238:6 *238:7 8.76247
8 *238:6 *238:5 8.76247
9 *238:3 *238:6 1.02561
*END

*D_NET *239 0.0043784

*CONN
*I *794:Y O *C 292.73 459.65 *L 0 *D INVX1
*I *793:A I *C 337.185 460.125 *L 0.00161 *D INVX4

*CAP
1 *794:Y 2.26687e-05
2 *793:A 9.91942e-06
3 *239:4 1.79026e-05
4 *239:5 0.00195216
5 *239:6 0.00020098
6 *239:7 1.79026e-05
7 *239:8 0.00195216
8 *239:9 0.000191478
9 *239:10 1.32259e-05

*RES
1 *239:10 *793:A 0.599794
2 *239:9 *239:10 0.305272
3 *239:6 *239:9 11.3853
4 *239:7 *239:6 8.76043
5 *239:3 *239:7 1.02115
6 *239:8 *239:7 8.76043
7 *239:5 *239:8 140.889267
8 *239:4 *239:5 8.76043
9 *239:4 *794:Y 8.76043
10 *239:2 *239:4 1.02115
*END

*D_NET *240 0.0172403

*CONN
*I *919:A1 I *C 1392.6 1510.34 *L 0.000212 *D AOI22XL
*I *795:Y O *C 1565.53 1508.75 *L 0 *D INVX3

*CAP
1 *919:A1 3.71057e-05
2 *795:Y 2.26407e-05
3 *240:2 0.000194836
4 *240:3 0.000198861
5 *240:5 6.23878e-05
6 *240:6 3.89924e-05
7 *240:7 4.99354e-05
8 *240:8 6.23878e-05
9 *240:9 0.00101053
10 *240:10 0.00824312
11 *240:11 4.30174e-05
12 *240:12 0.0072585
13 *240:13 1.7861e-05

*RES
1 *240:7 *919:A1 1.79516
2 *240:8 *240:7 8.75942
3 *240:5 *240:8 7.8939
4 *240:6 *240:5 8.75942
5 *240:6 *240:11 2.12374
6 *240:9 *240:11 1.02581
7 *240:10 *240:12 525.212524
8 *240:9 *240:10 72.3273
9 *240:12 *240:3 1.02581
10 *240:3 *240:2 13.4557
11 *240:13 *240:2 8.75942
12 *240:13 *795:Y 8.75942
13 *240:4 *240:13 1.01779
*END

*D_NET *241 0.0186255

*CONN
*I *796:Y O *C 1738.73 1508.75 *L 0 *D INVX3
*I *795:A I *C 1564.9 1508.125 *L 0.0012 *D INVX3

*CAP
1 *796:Y 2.26378e-05
2 *795:A 2.26378e-05
3 *241:4 1.78273e-05
4 *241:5 0.0092723
5 *241:6 1.78273e-05
6 *241:7 0.0092723

*RES
1 *241:3 *241:6 1.02328
2 *241:6 *796:Y 8.75888
3 *241:7 *241:6 8.75888
4 *241:5 *241:7 615.242981
5 *241:4 *795:A 8.75888
6 *241:4 *241:5 8.75888
7 *241:2 *241:4 1.02328
*END

*D_NET *242 0.0403955

*CONN
*I *922:B1 I *C 1782.1801 1200.39 *L 0.000212 *D AOI22XL
*I *924:B1 I *C 1782.1801 1138.83 *L 0.000212 *D AOI22XL
*I *921:B1 I *C 1782.1801 1267.33 *L 0.000212 *D AOI22XL
*I *926:B1 I *C 1781.78 1326.9301 *L 0.000212 *D AOI22XL
*I *920:B1 I *C 1781.58 1446.63 *L 0.000212 *D AOI22XL
*I *797:Y O *C 1779.715 1137.395 *L 0 *D CLKBUFX8
*I *796:A I *C 1738.1 1508.125 *L 0.0012 *D INVX3

*CAP
1 *922:B1 2.26869e-05
2 *924:B1 2.26869e-05
3 *921:B1 2.26869e-05
4 *926:B1 2.26869e-05
5 *920:B1 2.26869e-05
6 *797:Y 2.26869e-05
7 *796:A 2.26869e-05
8 *242:7 1.79239e-05
9 *242:8 1.79239e-05
10 *242:9 0.000110802
11 *242:10 3.76026e-05
12 *242:11 4.41204e-05
13 *242:12 4.41204e-05
14 *242:13 1.99294e-05
15 *242:14 1.99294e-05
16 *242:15 0.00317968
17 *242:16 0.00594021
18 *242:17 0.00277219
19 *242:18 3.53465e-05
20 *242:19 3.07088e-05
21 *242:20 7.40771e-05
22 *242:21 7.40771e-05
23 *242:22 2.68232e-05
24 *242:23 7.42025e-05
25 *242:24 0.00277796
26 *242:25 0.00273058
27 *242:26 8.47312e-05
28 *242:27 0.00821429
29 *242:28 0.00550452
30 *242:29 0.000204684
31 *242:30 0.000136623
32 *242:32 0.00216228
33 *242:33 0.000175855
34 *242:34 0.000175855
35 *242:35 0.00216228
36 *242:36 0.0027213
37 *242:37 6.37991e-05
38 *242:38 5.84094e-05
39 *242:39 1.79239e-05
40 *242:40 3.82293e-05
41 *242:41 7.93415e-05
42 *242:42 6.37991e-05
43 *242:43 7.49545e-05
44 *242:44 8.1723e-05
45 *242:45 8.1723e-05
46 *242:46 5.84094e-05
47 *242:47 4.8006e-05

*RES
1 *242:34 *796:A 8.76207
2 *242:8 *797:Y 8.76207
3 *242:33 *242:34 11.4318
4 *242:11 *924:B1 8.76207
5 *242:8 *242:7 0.670599
6 *242:32 *242:33 8.76207
7 *242:12 *242:11 2.19526
8 *242:30 *242:7 8.76207
9 *242:32 *242:35 131.064
10 *242:29 *242:12 8.76207
11 *242:30 *242:29 8.42677
12 *242:36 *242:35 8.76207
13 *242:29 *242:43 4.20706
14 *242:27 *920:B1 8.76207
15 *242:27 *242:36 204.824
16 *242:19 *242:43 8.76207
17 *242:28 *242:27 414.607269
18 *242:19 *242:18 1.3412
19 *242:10 *926:B1 8.76207
20 *242:28 *242:26 1.06916
21 *242:18 *242:44 1.06916
22 *242:10 *242:9 2.0118
23 *242:9 *242:26 5.36479
24 *242:13 *922:B1 8.76207
25 *242:44 *242:45 5.33949
26 *242:37 *242:9 8.76207
27 *242:14 *242:13 0.733863
28 *242:21 *242:45 1.06916
29 *242:37 *242:42 3.51115
30 *242:38 *242:14 8.76207
31 *242:21 *242:20 4.68787
32 *242:22 *242:42 8.76207
33 *242:38 *242:46 5.69376
34 *242:20 *242:17 1.06916
35 *242:23 *242:22 1.3412
36 *242:16 *242:46 8.76207
37 *242:17 *242:16 207.089
38 *242:24 *242:23 4.01727
39 *242:16 *242:15 239.461
40 *242:25 *242:24 204.982
41 *242:47 *242:15 8.76207
42 *242:41 *242:25 8.76207
43 *242:41 *242:47 2.8026
44 *242:40 *242:41 2.10669
45 *242:39 *921:B1 8.76207
46 *242:39 *242:40 8.76207
47 *242:31 *242:39 1.01222
*END

*D_NET *243 0.0237224

*CONN
*I *923:B1 I *C 1781.58 1080.6899 *L 0.000212 *D AOI22XL
*I *798:Y O *C 1600.15 1080.895 *L 0 *D INVX4
*I *797:A I *C 1780.3 1137.245 *L 0.000787 *D CLKBUFX8

*CAP
1 *923:B1 2.2619e-05
2 *798:Y 2.2619e-05
3 *797:A 2.2619e-05
4 *243:3 0.00232976
5 *243:4 0.00232976
6 *243:5 2.46629e-05
7 *243:6 2.00301e-05
8 *243:7 5.35499e-05
9 *243:8 5.81827e-05
10 *243:9 0.00892975
11 *243:10 0.00883273
12 *243:11 2.61618e-05
13 *243:12 2.61618e-05
14 *243:14 4.55106e-05
15 *243:15 1.79862e-05
16 *243:16 4.55106e-05
17 *243:17 0.00010383
18 *243:3 *82:2 0.00040545
19 *243:4 *82:3 0.000405449998

*RES
1 *243:6 *923:B1 8.76336
2 *243:6 *243:5 0.735929
3 *243:12 *798:Y 8.76336
4 *243:8 *243:5 1.07484
5 *243:12 *243:11 1.34597
6 *243:8 *243:7 3.31168
7 *243:10 *243:11 8.76336
8 *243:17 *243:7 8.76336
9 *243:10 *243:9 634.602905
10 *243:9 *243:17 5.62598
11 *243:4 *243:9 8.76336
12 *243:4 *243:3 197.21
13 *243:14 *243:3 8.76336
14 *243:14 *243:16 2.11095
15 *243:15 *797:A 8.76336
16 *243:15 *243:16 8.76336
17 *243:13 *243:15 1.01674
*END

*D_NET *244 0.0144472

*CONN
*I *799:Y O *C 1463.53 1081.25 *L 0 *D INVX3
*I *798:A I *C 1599.985 1080.775 *L 0.00161 *D INVX4

*CAP
1 *799:Y 2.26555e-05
2 *798:A 2.26555e-05
3 *244:2 0.00713812
4 *244:3 0.00713812
5 *244:4 2.60321e-05
6 *244:5 2.60321e-05
7 *244:6 3.68152e-05
8 *244:7 3.68152e-05

*RES
1 *244:6 *798:A 8.76276
2 *244:6 *244:7 3.22528
3 *244:2 *244:7 8.76276
4 *244:3 *244:2 482.584869
5 *244:5 *244:3 8.76276
6 *244:4 *244:5 1.34755
7 *799:Y *244:4 8.76276
*END

*D_NET *245 0.0218919

*CONN
*I *800:Y O *C 1327.35 990.105 *L 0 *D INVX4
*I *799:A I *C 1462.9 1080.625 *L 0.0012 *D INVX3

*CAP
1 *800:Y 0.000147555
2 *799:A 2.26391e-05
3 *245:2 0.00656484
4 *245:3 0.000160377
5 *245:4 8.50469e-05
6 *245:5 0.00410389
7 *245:6 8.50469e-05
8 *245:7 0.0024867
9 *245:8 0.00411791
10 *245:9 0.00411791

*RES
1 *245:9 *799:A 8.76116
2 *245:8 *245:9 314.098114
3 *245:7 *245:8 8.76116
4 *245:2 *245:7 149.707
5 *245:5 *245:2 247.57
6 *245:6 *245:5 8.76116
7 *245:4 *245:6 5.38227
8 *245:3 *245:4 8.76116
9 *800:Y *245:3 8.98642
*END

*D_NET *246 0.0222195

*CONN
*I *801:Y O *C 1327.35 764.385 *L 0 *D INVX4
*I *800:A I *C 1327.1851 990.225 *L 0.00161 *D INVX4

*CAP
1 *801:Y 2.26562e-05
2 *800:A 2.26562e-05
3 *246:2 0.01038305
4 *246:3 6.28988e-05
5 *246:4 1.74279e-05
6 *246:5 0.0102367
7 *246:6 0.000209927
8 *246:6 *354:3 6.49e-06
9 *246:2 *354:4 6.49e-06
10 *246:4 *354:3 4.84e-06
11 *246:3 *354:4 4.84e-06
12 *246:2 *354:4 0.00062081
13 *246:5 *354:5 0.000620809976

*RES
1 *246:5 *801:Y 8.76231
2 *246:4 *800:A 8.76231
3 *246:2 *246:6 11.0764
4 *246:5 *246:2 789.885071
5 *246:3 *246:4 0.903952
6 *246:3 *246:6 4.31486
*END

*D_NET *247 0.022002

*CONN
*I *925:A1 I *C 1326.6 583.52 *L 0.000212 *D AOI22XL
*I *802:Y O *C 1284.35 579.705 *L 0 *D INVX4
*I *801:A I *C 1327.1851 764.505 *L 0.00161 *D INVX4

*CAP
1 *925:A1 8.59187e-05
2 *802:Y 2.26358e-05
3 *801:A 2.26358e-05
4 *247:3 0.000210294
5 *247:4 0.000210294
6 *247:5 0.00202091
7 *247:6 8.20244e-05
8 *247:7 2.6165e-05
9 *247:8 2.6165e-05
10 *247:9 0.00202091
11 *247:10 3.82131e-05
12 *247:11 7.0098e-05
13 *247:12 8.01989e-05
14 *247:13 4.81924e-05
15 *247:14 0.00797547
16 *247:15 0.00797547
17 *247:15 *354:6 0.00034478
18 *247:14 *354:7 0.00034478
19 *247:15 *354:8 0.00017966
20 *247:14 *354:9 0.00017966
21 *247:11 *354:8 1.027e-05
22 *247:10 *354:9 1.027e-05
23 *247:13 *354:10 7.52e-06
24 *247:12 *354:11 7.52e-06
25 *247:8 *354:8 1.06e-06
26 *247:7 *354:9 1.05998255e-06

*RES
1 *247:13 *801:A 8.75616
2 *247:12 *247:13 3.53558
3 *247:12 *247:15 3.24338
4 *247:14 *247:15 638.313049
5 *247:11 *247:14 3.24338
6 *247:10 *247:11 2.20121
7 *925:A1 *247:10 8.75616
8 *247:6 *925:A1 3.59402
9 *247:7 *247:6 8.75616
10 *247:7 *247:8 1.35384
11 *247:9 *247:8 8.75616
12 *247:5 *247:9 145.738
13 *247:4 *247:5 8.75616
14 *247:3 *247:4 14.1228
15 *802:Y *247:3 8.75616
*END

*D_NET *248 0.0217125

*CONN
*I *803:Y O *C 1069.15 579.705 *L 0 *D INVX4
*I *802:A I *C 1284.1851 579.825 *L 0.00161 *D INVX4

*CAP
1 *803:Y 0.000227706
2 *802:A 9.83242e-06
3 *248:4 0.00024066
4 *248:5 1.79481e-05
5 *248:6 0.01022806
6 *248:7 0.000369262
7 *248:8 1.79481e-05
8 *248:9 0.01022806
9 *248:10 0.000359742
10 *248:11 1.3266e-05

*RES
1 *248:11 *802:A 0.601296
2 *248:10 *248:11 0.306114
3 *248:7 *248:10 21.5701
4 *248:8 *248:7 8.75705
5 *248:3 *248:8 1.01674
6 *248:9 *248:8 8.75705
7 *248:6 *248:9 716.482117
8 *803:Y *248:4 13.7861
9 *248:5 *248:6 8.75705
10 *248:5 *248:4 8.75705
11 *248:2 *248:5 1.01674
*END

*D_NET *249 0.0210269

*CONN
*I *804:Y O *C 853.95 579.705 *L 0 *D INVX4
*I *803:A I *C 1068.985 579.825 *L 0.00161 *D INVX4

*CAP
1 *804:Y 5.93647e-05
2 *803:A 9.89412e-06
3 *249:2 0.01029224
4 *249:5 7.22428e-05
5 *249:6 1.79036e-05
6 *249:7 0.0055451
7 *249:8 0.000121713
8 *249:9 1.79036e-05
9 *249:10 0.00476504
10 *249:11 0.00011229
11 *249:12 1.31922e-05

*RES
1 *249:12 *803:A 0.600217
2 *249:11 *249:12 0.306233
3 *249:8 *249:11 6.59013
4 *249:9 *249:8 8.75826
5 *249:4 *249:9 1.02282
6 *249:10 *249:9 8.75826
7 *249:2 *249:10 344.831
8 *249:7 *249:2 401.385742
9 *804:Y *249:5 3.59518
10 *249:6 *249:7 8.75826
11 *249:6 *249:5 8.75826
12 *249:3 *249:6 1.02282
*END

*D_NET *250 0.0210598

*CONN
*I *805:Y O *C 638.75 579.705 *L 0 *D INVX4
*I *804:A I *C 853.785 579.825 *L 0.00161 *D INVX4

*CAP
1 *805:Y 0.000307015
2 *804:A 9.97194e-06
3 *250:4 0.000319857
4 *250:5 1.78286e-05
5 *250:6 0.00990168
6 *250:7 0.000290093
7 *250:8 1.78286e-05
8 *250:9 0.00990168
9 *250:10 0.000280574
10 *250:11 1.32959e-05

*RES
1 *250:11 *804:A 0.601296
2 *250:10 *250:11 0.306114
3 *250:7 *250:10 16.7816
4 *250:8 *250:7 8.75705
5 *250:3 *250:8 1.01674
6 *250:9 *250:8 8.75705
7 *250:6 *250:9 716.482117
8 *805:Y *250:4 18.5746
9 *250:5 *250:6 8.75705
10 *250:5 *250:4 8.75705
11 *250:2 *250:5 1.01674
*END

*D_NET *251 0.0168629

*CONN
*I *806:Y O *C 466.53 579.35 *L 0 *D INVX3
*I *805:A I *C 638.585 579.825 *L 0.00161 *D INVX4

*CAP
1 *806:Y 2.26632e-05
2 *805:A 9.92282e-06
3 *251:4 1.78856e-05
4 *251:5 0.00031165
5 *251:6 0.000315693
6 *251:7 0.00251978
7 *251:8 0.0080283
8 *251:9 4.25089e-05
9 *251:10 1.78856e-05
10 *251:11 0.00553032
11 *251:12 3.30761e-05
12 *251:13 1.32304e-05

*RES
1 *251:13 *805:A 0.598459
2 *251:12 *251:13 0.305336
3 *251:9 *251:12 1.79538
4 *251:10 *251:9 8.76315
5 *251:3 *251:10 1.01982
6 *251:11 *251:10 8.76315
7 *251:8 *251:11 400.21048
8 *251:7 *251:8 181.755
9 *251:6 *251:7 1.02593
10 *251:5 *251:6 21.9476
11 *251:4 *251:5 8.76315
12 *251:4 *806:Y 8.76315
13 *251:2 *251:4 1.01982
*END

*D_NET *252 0.0168901

*CONN
*I *807:Y O *C 294.33 579.35 *L 0 *D INVX3
*I *806:A I *C 465.9 579.975 *L 0.0012 *D INVX3

*CAP
1 *807:Y 2.27179e-05
2 *806:A 9.84037e-05
3 *252:3 1.78585e-05
4 *252:4 0.00034089
5 *252:5 0.000344899
6 *252:6 0.00796159
7 *252:7 1.7494e-05
8 *252:8 0.00795758
9 *252:9 0.00011116
10 *252:10 1.7494e-05

*RES
1 *252:9 *806:A 5.98848
2 *252:10 *252:9 8.75848
3 *252:7 *252:10 0.668318
4 *252:8 *252:7 8.75848
5 *252:6 *252:8 576.300842
6 *252:5 *252:6 1.02886
7 *252:4 *252:5 24.0682
8 *252:3 *252:4 8.75848
9 *252:3 *807:Y 8.75848
10 *252:2 *252:3 1.02006
*END

*D_NET *253 0.0314519

*CONN
*I *935:B I *C 274.775 1773.135 *L 0.000392 *D NOR2X1
*I *808:Y O *C 252.165 1460.105 *L 0 *D CLKINVX6

*CAP
1 *935:B 2.26706e-05
2 *808:Y 2.26706e-05
3 *253:2 0.012381
4 *253:3 0.0102721
5 *253:4 0.00118378
6 *253:5 0.00213142
7 *253:6 0.000279038
8 *253:7 0.000283761
9 *253:8 0.000519158
10 *253:9 0.000514623
11 *253:10 0.00118378
12 *253:11 0.00132661
13 *253:12 0.00133133

*RES
1 *253:9 *935:B 8.75916
2 *253:8 *253:9 42.1564
3 *253:8 *253:12 1.07695
4 *253:11 *253:12 99.1747
5 *253:10 *253:11 8.75916
6 *253:4 *253:10 70.0852
7 *253:6 *808:Y 8.75916
8 *253:5 *253:4 8.75916
9 *253:6 *253:7 19.4449
10 *253:2 *253:5 161.195
11 *253:3 *253:2 784.208008
12 *253:3 *253:7 1.07695
*END

*D_NET *254 0.0286833

*CONN
*I *809:Y O *C 251.165 1151.255 *L 0 *D CLKINVX6
*I *808:A I *C 251.3 1460.245 *L 0.00241 *D CLKINVX6

*CAP
1 *809:Y 2.26165e-05
2 *808:A 1.98428e-05
3 *254:2 0.00030767
4 *254:3 0.000312364
5 *254:4 0.0102722
6 *254:5 0.01398276
7 *254:6 3.26446e-05
8 *254:7 0.00373322

*RES
1 *254:6 *808:A 1.20851
2 *254:7 *254:6 8.75868
3 *254:5 *254:7 283.879
4 *254:4 *254:5 784.165283
5 *254:3 *254:4 1.07689
6 *254:2 *254:3 21.454
7 *809:Y *254:2 8.75868
*END

*D_NET *255 0.0206307

*CONN
*I *810:Y O *C 250.95 928.545 *L 0 *D INVX4
*I *809:A I *C 250.3 1151.115 *L 0.00241 *D CLKINVX6

*CAP
1 *810:Y 2.26653e-05
2 *809:A 2.26653e-05
3 *255:2 0.000323855
4 *255:3 0.000328418
5 *255:4 0.00996892
6 *255:5 0.0099642

*RES
1 *255:5 *809:A 8.75502
2 *255:4 *255:5 760.966553
3 *255:3 *255:4 1.07986
4 *255:2 *255:3 22.7932
5 *810:Y *255:2 8.75502
*END

*D_NET *256 0.0167058

*CONN
*I *811:Y O *C 250.73 752.93 *L 0 *D INVX3
*I *810:A I *C 250.785 928.665 *L 0.00161 *D INVX4

*CAP
1 *811:Y 2.26729e-05
2 *810:A 2.26729e-05
3 *256:2 0.000295976
4 *256:3 0.000264084
5 *256:4 7.80575e-05
6 *256:5 7.80575e-05
7 *256:6 0.00447086
8 *256:7 0.0044755
9 *256:8 0.0031294
10 *256:9 0.00315665
11 *256:7 *288:17 1.124e-05
12 *256:6 *288:18 1.124e-05
13 *256:7 *288:19 0.00034474
14 *256:6 *288:20 0.000344740005

*RES
1 *256:6 *811:Y 8.76029
2 *256:6 *256:7 362.674774
3 *256:4 *256:7 1.07359
4 *256:4 *256:5 4.70941
5 *256:5 *256:8 1.07359
6 *256:3 *810:A 8.76029
7 *256:8 *256:9 237.325
8 *256:2 *256:3 18.2621
9 *256:2 *256:9 3.22631
*END

*D_NET *257 0.0110824

*CONN
*I *928:A0 I *C 1134.36 330.29 *L 0.000211 *D AOI21XL
*I *812:Y O *C 1201.73 290.74 *L 0 *D INVX2

*CAP
1 *928:A0 2.26537e-05
2 *812:Y 3.02049e-05
3 *257:2 0.000120299
4 *257:3 0.000115612
5 *257:4 0.00341289
6 *257:5 0.00158586
7 *257:6 0.00159055
8 *257:7 3.2965e-05
9 *257:8 0.000158784
10 *257:9 0.00341289
11 *257:10 0.000158784
12 *257:11 0.000181281
13 *257:12 3.41628e-05
14 *257:13 0.000181281
15 *257:14 4.42137e-05

*RES
1 *257:14 *812:Y 1.79725
2 *257:13 *257:14 1.28908
3 *257:11 *257:13 10.1863
4 *257:11 *257:12 1.28908
5 *257:7 *257:12 1.19721
6 *257:8 *257:7 8.75942
7 *257:8 *257:10 10.0887
8 *257:9 *257:10 8.75942
9 *257:4 *257:9 188.153854
10 *257:5 *257:4 8.75942
11 *257:3 *928:A0 8.75942
12 *257:5 *257:6 119.721
13 *257:2 *257:3 8.07038
14 *257:2 *257:6 1.0795
*END

*D_NET *258 0.0068814

*CONN
*I *945:B I *C 1260.965 251.585 *L 0.000392 *D NOR2BX1
*I *946:B I *C 1324.165 249.635 *L 0.000392 *D NOR2BX1
*I *813:Y O *C 1260.13 251.52 *L 0 *D INVX2

*CAP
1 *945:B 2.26743e-05
2 *946:B 2.26743e-05
3 *813:Y 2.26743e-05
4 *258:3 2.00596e-05
5 *258:4 2.00596e-05
6 *258:5 2.83122e-05
7 *258:6 2.83122e-05
8 *258:7 0.0026734
9 *258:8 0.0026774
10 *258:9 8.2281e-05
11 *258:10 6.52038e-05
12 *258:11 0.000229929
13 *258:12 9.26172e-05
14 *258:13 0.000165256
15 *258:14 0.00012146
16 *258:15 4.31832e-05
17 *258:16 0.00012146
18 *258:17 4.31832e-05
19 *258:18 4.62473e-05
20 *258:19 4.62473e-05
21 *258:7 *224:9 0.00015438
22 *258:8 *224:7 0.000154379997

*RES
1 *258:18 *946:B 8.76079
2 *258:18 *258:19 4.60915
3 *258:7 *258:19 8.76079
4 *258:8 *258:7 202.592545
5 *258:8 *258:17 1.02323
6 *258:15 *258:17 2.12373
7 *258:15 *258:16 1.02323
8 *258:14 *258:16 7.81176
9 *258:13 *258:14 1.02323
10 *258:6 *945:B 8.76079
11 *258:11 *258:13 9.91694
12 *258:6 *258:5 1.40964
13 *258:11 *258:12 6.13317
14 *258:9 *258:5 8.76079
15 *258:9 *258:12 1.57657
16 *258:10 *258:9 3.53956
17 *258:3 *258:10 8.76079
18 *258:4 *258:3 0.735733
19 *813:Y *258:4 8.76079
*END

*D_NET *259 0.00962748

*CONN
*I *814:Y O *C 1202.73 251.52 *L 0 *D INVX2
*I *813:A I *C 1259.7 251.655 *L 0.000801 *D INVX2
*I *812:A I *C 1201.3 290.605 *L 0.000801 *D INVX2

*CAP
1 *814:Y 2.26937e-05
2 *813:A 2.26937e-05
3 *812:A 2.26937e-05
4 *259:3 0.000195045
5 *259:4 0.000198982
6 *259:5 0.00263227
7 *259:6 0.00262825
8 *259:7 3.43017e-05
9 *259:8 3.43017e-05
10 *259:9 0.000650004
11 *259:10 0.000577264
12 *259:11 2.59472e-05
13 *259:12 0.00126466
14 *259:13 0.00131836

*RES
1 *259:8 *813:A 8.76209
2 *259:8 *259:7 3.16601
3 *259:3 *259:7 8.76209
4 *259:4 *259:3 13.4404
5 *259:5 *259:4 1.02167
6 *259:6 *259:5 189.141052
7 *259:11 *814:Y 8.76209
8 *259:12 *259:6 8.76209
9 *259:11 *259:12 1.33913
10 *259:10 *812:A 8.76209
11 *259:12 *259:13 92.8764
12 *259:9 *259:10 42.3732
13 *259:9 *259:13 6.47921
*END

*D_NET *260 0.0321098

*CONN
*I *939:B I *C 270.975 1771.885 *L 0.000392 *D NOR2X1
*I *815:Y O *C 271.965 1424.855 *L 0 *D CLKINVX6

*CAP
1 *939:B 2.27068e-05
2 *815:Y 2.27068e-05
3 *260:2 1.75795e-05
4 *260:3 2.22185e-05
5 *260:4 0.01600098
6 *260:5 0.0102684
7 *260:6 0.00575508

*RES
1 *260:5 *815:Y 8.76237
2 *260:2 *939:B 8.76237
3 *260:4 *260:6 438.274
4 *260:5 *260:4 784.495667
5 *260:3 *260:2 0.670345
6 *260:3 *260:6 1.07734
*END

*D_NET *261 0.00812139

*CONN
*I *816:Y O *C 271.33 1337.26 *L 0 *D INVX2
*I *815:A I *C 271.1 1424.715 *L 0.00241 *D CLKINVX6

*CAP
1 *816:Y 2.26748e-05
2 *815:A 2.26748e-05
3 *261:2 0.00403802
4 *261:3 0.00403802

*RES
1 *261:3 *815:A 8.76165
2 *261:2 *261:3 307.060669
3 *816:Y *261:2 8.76165
*END

*D_NET *262 0.0162804

*CONN
*I *817:Y O *C 271.33 1160.75 *L 0 *D INVX3
*I *816:A I *C 270.9 1337.125 *L 0.000801 *D INVX2

*CAP
1 *817:Y 2.26674e-05
2 *816:A 2.26674e-05
3 *262:2 0.00811754
4 *262:3 0.00811754

*RES
1 *262:3 *816:A 8.76291
2 *262:2 *262:3 619.510437
3 *817:Y *262:2 8.76291
*END

*D_NET *263 0.0164044

*CONN
*I *818:Y O *C 270.53 985.49 *L 0 *D INVX3
*I *817:A I *C 270.7 1161.375 *L 0.0012 *D INVX3

*CAP
1 *818:Y 2.26716e-05
2 *817:A 1.96407e-05
3 *263:2 0.00794538
4 *263:3 3.2492e-05
5 *263:4 0.00794065
6 *263:5 0.000219442
7 *263:6 0.00022417

*RES
1 *263:3 *817:A 1.21148
2 *263:5 *818:Y 8.75782
3 *263:4 *263:3 8.75782
4 *263:5 *263:6 14.7505
5 *263:2 *263:4 606.07428
6 *263:2 *263:6 1.07276
*END

*D_NET *264 0.0202951

*CONN
*I *819:Y O *C 269.95 766.255 *L 0 *D INVX4
*I *818:A I *C 269.9 984.865 *L 0.0012 *D INVX3

*CAP
1 *819:Y 2.27446e-05
2 *818:A 2.27446e-05
3 *264:2 0.0098713
4 *264:3 0.00986663
5 *264:4 0.000258174
6 *264:5 0.000253504

*RES
1 *264:5 *818:A 8.76613
2 *264:4 *264:5 17.4289
3 *264:2 *264:4 1.07997
4 *264:3 *264:2 752.944885
5 *819:Y *264:3 8.76613
*END

*D_NET *265 0.0304137

*CONN
*I *820:Y O *C 253.965 461.465 *L 0 *D CLKINVX6
*I *819:A I *C 269.785 766.135 *L 0.00161 *D INVX4

*CAP
1 *820:Y 2.26749e-05
2 *819:A 2.26749e-05
3 *265:2 0.0052314
4 *265:3 0.00521305
5 *265:4 0.000286366
6 *265:5 0.000304709
7 *265:6 0.0083483
8 *265:7 0.000876677
9 *265:8 0.00834359
10 *265:9 4.10186e-05
11 *265:10 4.57319e-05
12 *265:11 0.000876677
13 *265:8 *266:5 0.00020265
14 *265:6 *266:3 0.00020265
15 *265:10 *266:3 2.28e-06
16 *265:9 *266:4 2.28e-06
17 *265:8 *266:3 0.00019555
18 *265:6 *266:4 0.000195549994

*RES
1 *265:4 *819:A 8.75739
2 *265:5 *265:4 19.8609
3 *265:5 *265:2 2.15395
4 *265:3 *265:2 391.807
5 *265:11 *265:3 8.75739
6 *265:7 *265:11 48.3376
7 *265:9 *820:Y 8.75739
8 *265:8 *265:7 8.75739
9 *265:9 *265:10 2.68991
10 *265:6 *265:8 662.730164
11 *265:6 *265:10 1.07192
*END

*D_NET *266 0.0244509

*CONN
*I *937:B I *C 250.9 579.785 *L 0.000211 *D AND2X1
*I *932:A1 I *C 250.99 520.19 *L 0.000212 *D OA21X1
*I *821:Y O *C 251.75 336.885 *L 0 *D INVX4

*CAP
1 *937:B 2.27737e-05
2 *932:A1 2.27737e-05
3 *821:Y 5.97372e-05
4 *266:3 0.01148058
5 *266:4 0.00884601
6 *266:5 0.00264158
7 *266:8 1.80438e-05
8 *266:9 0.000120876
9 *266:10 1.80438e-05
10 *266:11 0.000113168
11 *266:12 7.27007e-05
12 *266:13 0.000120876
13 *266:14 0.000113168
14 *266:5 *265:8 0.00020265
15 *266:3 *265:6 0.00020265
16 *266:3 *265:10 2.28e-06
17 *266:4 *265:9 2.28e-06
18 *266:3 *265:8 0.00019555
19 *266:4 *265:6 0.000195549994

*RES
1 *266:10 *937:B 8.75986
2 *266:7 *266:10 1.01721
3 *266:11 *266:10 8.75986
4 *821:Y *266:12 3.62443
5 *266:11 *266:14 7.05134
6 *266:4 *266:12 8.75986
7 *266:5 *266:14 8.75986
8 *266:4 *266:3 647.221985
9 *266:3 *266:5 212.261
10 *266:13 *266:3 8.75986
11 *266:9 *266:13 7.05134
12 *266:8 *932:A1 8.75986
13 *266:8 *266:9 8.75986
14 *266:6 *266:8 1.01721
*END

*D_NET *267 0.021395

*CONN
*I *822:Y O *C 383.75 249.835 *L 0 *D INVX4
*I *821:A I *C 251.585 337.005 *L 0.00161 *D INVX4

*CAP
1 *822:Y 2.26461e-05
2 *821:A 2.26461e-05
3 *267:2 5.02023e-05
4 *267:3 4.55929e-05
5 *267:4 0.000166539
6 *267:5 0.000166539
7 *267:6 1.61329e-05
8 *267:7 1.14233e-05
9 *267:8 0.00656688
10 *267:9 0.0038797
11 *267:10 0.00656688
12 *267:11 0.0038797

*RES
1 *267:9 *822:Y 8.7596
2 *267:9 *267:11 294.187
3 *267:10 *267:11 8.7596
4 *267:8 *267:10 396.183044
5 *267:3 *267:8 8.7596
6 *267:3 *267:2 2.69015
7 *267:5 *267:2 1.07606
8 *267:7 *821:A 8.7596
9 *267:5 *267:4 9.70871
10 *267:6 *267:7 0.175313
11 *267:6 *267:4 1.07606
*END

*D_NET *268 0.0217718

*CONN
*I *823:Y O *C 604.95 249.835 *L 0 *D INVX4
*I *822:A I *C 383.585 249.715 *L 0.00161 *D INVX4

*CAP
1 *823:Y 2.26022e-05
2 *822:A 2.26022e-05
3 *268:3 1.12186e-05
4 *268:4 1.12186e-05
5 *268:5 0.00690028
6 *268:6 0.01081195
7 *268:7 3.11812e-05
8 *268:8 0.00392965
9 *268:9 3.11812e-05

*RES
1 *268:9 *823:Y 8.75975
2 *268:7 *268:9 1.45602
3 *268:8 *268:7 8.75975
4 *268:6 *268:8 293.29
5 *268:5 *268:6 515.794373
6 *268:4 *268:5 8.75975
7 *268:3 *822:A 8.75975
8 *268:3 *268:4 0.181019
9 *268:2 *268:3 0.78704
*END

*D_NET *269 0.0218948

*CONN
*I *824:Y O *C 826.35 249.835 *L 0 *D INVX4
*I *823:A I *C 604.785 249.715 *L 0.00161 *D INVX4

*CAP
1 *824:Y 2.26793e-05
2 *823:A 2.26793e-05
3 *269:2 0.000233549
4 *269:3 0.000229527
5 *269:4 3.20084e-05
6 *269:5 3.20084e-05
7 *269:7 0.01054105
8 *269:8 0.01054105
9 *269:9 0.000113236
10 *269:10 1.78539e-05
11 *269:11 0.000109375

*RES
1 *269:5 *823:A 8.76416
2 *269:5 *269:4 1.67108
3 *269:3 *269:4 8.76416
4 *269:3 *269:2 15.5206
5 *269:7 *269:2 1.02188
6 *269:7 *269:8 787.885193
7 *269:8 *269:9 1.02188
8 *269:9 *269:11 7.06904
9 *269:10 *269:11 8.76416
10 *269:10 *824:Y 8.76416
11 *269:6 *269:10 1.05795
*END

*D_NET *270 0.0218728

*CONN
*I *825:Y O *C 1047.55 249.835 *L 0 *D INVX4
*I *824:A I *C 826.185 249.715 *L 0.00161 *D INVX4

*CAP
1 *825:Y 2.27065e-05
2 *824:A 2.27065e-05
3 *270:2 0.01086185
4 *270:3 0.0070329
5 *270:4 1.17676e-05
6 *270:5 1.17676e-05
7 *270:7 3.09936e-05
8 *270:8 0.00384702
9 *270:9 3.09936e-05

*RES
1 *270:9 *825:Y 8.75741
2 *270:7 *270:9 1.45957
3 *270:8 *270:7 8.75741
4 *270:2 *270:8 287.214
5 *270:3 *270:2 525.573181
6 *270:4 *270:3 8.75741
7 *270:5 *824:A 8.75741
8 *270:5 *270:4 0.20049
9 *270:6 *270:5 0.785922
*END

*D_NET *271 0.0219127

*CONN
*I *826:Y O *C 1264.75 249.835 *L 0 *D INVX4
*I *825:A I *C 1047.385 249.715 *L 0.00161 *D INVX4

*CAP
1 *826:Y 2.25905e-05
2 *825:A 2.25905e-05
3 *271:2 0.0105707
4 *271:3 0.01057477
5 *271:4 0.000311587
6 *271:5 0.000307553
7 *271:6 3.19494e-05
8 *271:7 3.19494e-05
9 *271:8 1.93633e-05
10 *271:9 1.93633e-05

*RES
1 *271:9 *826:Y 8.75915
2 *271:8 *271:9 0.672872
3 *271:2 *271:8 8.75915
4 *271:3 *271:2 773.637939
5 *271:3 *271:4 1.01521
6 *271:5 *271:4 21.166
7 *271:6 *271:5 8.75915
8 *271:7 *271:6 1.67628
9 *825:A *271:7 8.75915
*END

*D_NET *272 0.0334095

*CONN
*I *938:A1 I *C 253.19 393.65 *L 0.000212 *D OA21X1
*I *941:B I *C 249.7 458.375 *L 0.000211 *D AND2X1
*I *827:Y O *C 514.765 393.065 *L 0 *D CLKINVX6

*CAP
1 *938:A1 3.27292e-05
2 *941:B 2.27508e-05
3 *827:Y 2.27508e-05
4 *272:3 0.00310648
5 *272:4 0.00310648
6 *272:5 2.69417e-05
7 *272:6 2.69417e-05
8 *272:7 0.000187594
9 *272:8 0.01307871
10 *272:9 0.0111682
11 *272:10 0.000164843
12 *272:11 2.59439e-05
13 *272:12 2.59439e-05
14 *272:13 0.00192843
15 *272:8 *182:6 2.86e-06
16 *272:9 *182:4 2.86e-06
17 *272:8 *182:10 0.00023943
18 *272:9 *182:5 0.000239430005

*RES
1 *272:11 *827:Y 8.76193
2 *272:11 *272:12 1.34984
3 *272:13 *272:12 8.76193
4 *272:8 *272:13 139.263
5 *272:9 *272:8 789.851257
6 *272:5 *272:9 8.76193
7 *272:3 *941:B 8.76193
8 *272:6 *272:5 1.34984
9 *272:4 *272:3 239.187
10 *272:7 *938:A1 1.78372
11 *272:7 *272:6 8.76193
12 *272:10 *272:4 8.76193
13 *272:10 *272:7 8.316
*END

*D_NET *273 0.0235706

*CONN
*I *828:Y O *C 734.55 393.475 *L 0 *D INVX4
*I *827:A I *C 513.9 393.205 *L 0.00241 *D CLKINVX6

*CAP
1 *828:Y 2.26068e-05
2 *827:A 2.26068e-05
3 *273:4 1.7918e-05
4 *273:5 0.000458165
5 *273:6 0.000462184
6 *273:7 4.92327e-05
7 *273:8 0.01097436
8 *273:9 0.000299415
9 *273:10 0.0109509
10 *273:11 1.7918e-05
11 *273:12 0.000295396

*RES
1 *273:3 *273:11 1.01701
2 *273:11 *828:Y 8.76622
3 *273:12 *273:11 8.76622
4 *273:9 *273:12 20.6277
5 *273:9 *273:10 1.02807
6 *273:8 *273:10 724.46814
7 *273:7 *273:8 2.63097
8 *273:6 *273:7 1.02807
9 *273:5 *273:6 32.5666
10 *273:4 *827:A 8.76622
11 *273:4 *273:5 8.76622
12 *273:2 *273:4 1.01701
*END

*D_NET *274 0.0221586

*CONN
*I *829:Y O *C 954.35 393.475 *L 0 *D INVX4
*I *828:A I *C 734.385 393.355 *L 0.00161 *D INVX4

*CAP
1 *829:Y 2.27201e-05
2 *828:A 2.27201e-05
3 *274:2 4.33153e-05
4 *274:3 3.93924e-05
5 *274:4 0.01071196
6 *274:5 0.010699
7 *274:7 1.97779e-05
8 *274:8 1.97779e-05
9 *274:9 0.000289477
10 *274:10 1.78165e-05
11 *274:11 0.000272478

*RES
1 *274:7 *828:A 8.76297
2 *274:7 *274:8 0.843927
3 *274:3 *274:8 8.76297
4 *274:3 *274:2 2.12716
5 *274:5 *274:2 1.0289
6 *274:5 *274:4 757.638306
7 *274:4 *274:9 2.04623
8 *274:9 *274:11 19.1213
9 *274:10 *274:11 8.76297
10 *274:10 *829:Y 8.76297
11 *274:6 *274:10 1.01734
*END

*D_NET *275 0.0216717

*CONN
*I *830:Y O *C 1174.35 393.475 *L 0 *D INVX4
*I *829:A I *C 954.185 393.355 *L 0.00161 *D INVX4

*CAP
1 *830:Y 2.26443e-05
2 *829:A 2.26443e-05
3 *275:2 1.11581e-05
4 *275:3 1.59166e-05
5 *275:4 2.24802e-05
6 *275:5 0.000731017
7 *275:6 0.01075358
8 *275:7 2.59261e-05
9 *275:8 0.0100404
10 *275:9 2.59261e-05

*RES
1 *275:9 *830:Y 8.75679
2 *275:7 *275:9 1.34123
3 *275:8 *275:7 8.75679
4 *275:6 *275:8 726.436401
5 *275:5 *275:6 52.3523
6 *275:4 *275:5 8.75679
7 *275:3 *275:4 1.0752
8 *275:2 *275:3 0.177353
9 *829:A *275:2 8.75679
*END

*D_NET *276 0.0224327

*CONN
*I *940:B0 I *C 1262.3 248.045 *L 0.000212 *D AOI21XL
*I *831:Y O *C 1262.36 250.95 *L 0 *D BUFX4
*I *830:A I *C 1174.1851 393.355 *L 0.00161 *D INVX4

*CAP
1 *940:B0 2.26981e-05
2 *831:Y 2.26981e-05
3 *830:A 2.26981e-05
4 *276:3 0.000195223
5 *276:4 0.000295356
6 *276:5 0.000107139
7 *276:6 0.000380357
8 *276:7 0.000362143
9 *276:8 0.00439989
10 *276:9 0.00610318
11 *276:10 0.00612149
12 *276:11 0.00439989

*RES
1 *276:5 *940:B0 8.76421
2 *276:5 *276:4 12.7216
3 *276:4 *831:Y 8.76421
4 *276:4 *276:3 12.7853
5 *276:11 *276:3 8.76421
6 *276:8 *276:11 267.039
7 *276:9 *276:8 8.76421
8 *276:7 *830:A 8.76421
9 *276:9 *276:10 463.951019
10 *276:6 *276:7 25.8962
11 *276:6 *276:10 2.1592
*END

*D_NET *277 0.0312741

*CONN
*I *908:B1 I *C 1136.38 701.07 *L 0.000212 *D AOI22XL
*I *929:B1 I *C 1326.38 646.35 *L 0.000212 *D AOI22XL
*I *925:B1 I *C 1326.98 583.33 *L 0.000212 *D AOI22XL
*I *832:Y O *C 1136.765 646.145 *L 0 *D CLKINVX6

*CAP
1 *908:B1 2.26779e-05
2 *929:B1 2.26779e-05
3 *925:B1 2.26779e-05
4 *832:Y 3.04826e-05
5 *277:4 0.00250267
6 *277:5 0.00256187
7 *277:6 0.00965062
8 *277:7 0.00965062
9 *277:9 1.78183e-05
10 *277:10 5.02153e-05
11 *277:11 4.32942e-05
12 *277:12 4.34414e-05
13 *277:13 0.00256687
14 *277:14 0.00253035
15 *277:15 5.02153e-05
16 *277:16 0.000102345
17 *277:17 7.03898e-05
18 *277:18 0.000411147
19 *277:19 0.000411147
20 *277:20 2.66539e-05
21 *277:21 0.000116482
22 *277:22 3.13662e-05
23 *277:23 2.68011e-05
24 *277:24 8.11397e-05
25 *277:25 3.62257e-05
26 *277:26 7.70165e-05
27 *277:27 0.000116482

*RES
1 *277:26 *925:B1 8.75729
2 *277:26 *277:5 5.39931
3 *277:5 *277:4 189.098
4 *277:27 *277:4 8.75729
5 *277:21 *277:27 7.0834
6 *277:20 *277:21 8.75729
7 *277:20 *277:22 1.34727
8 *277:18 *277:22 1.0819
9 *277:18 *277:19 29.0379
10 *277:19 *277:23 1.0819
11 *277:25 *929:B1 8.75729
12 *277:23 *277:24 1.50037
13 *277:24 *277:25 2.16381
14 *277:16 *277:24 3.2355
15 *277:16 *277:17 4.03162
16 *277:6 *277:17 8.75729
17 *832:Y *277:11 1.79637
18 *277:7 *277:6 668.90155
19 *277:12 *277:11 8.75729
20 *277:13 *277:7 8.75729
21 *277:12 *277:13 2.70476
22 *277:13 *277:14 190.445
23 *277:15 *277:14 8.75729
24 *277:10 *277:15 2.82724
25 *277:9 *908:B1 8.75729
26 *277:9 *277:10 8.75729
27 *277:8 *277:9 1.02066
*END

*D_NET *278 0.0301535

*CONN
*I *833:Y O *C 1134.765 333.875 *L 0 *D CLKINVX6
*I *832:A I *C 1135.9 646.285 *L 0.00241 *D CLKINVX6

*CAP
1 *833:Y 2.25556e-05
2 *832:A 8.01729e-05
3 *278:2 0.000329848
4 *278:3 0.000334538
5 *278:4 0.0107499
6 *278:5 0.01463546
7 *278:6 9.29023e-05
8 *278:7 0.00390837

*RES
1 *278:6 *832:A 4.19246
2 *278:7 *278:6 8.75732
3 *278:5 *278:7 295.539
4 *278:4 *278:5 787.269897
5 *278:3 *278:4 1.08115
6 *278:2 *278:3 23.1366
7 *833:Y *278:2 8.75732
*END

*D_NET *279 0.018834

*CONN
*I *930:B1 I *C 951.38 333.67 *L 0.000212 *D AOI22XL
*I *834:Y O *C 950.93 332.27 *L 0 *D INVX3
*I *833:A I *C 1133.9 333.735 *L 0.00241 *D CLKINVX6

*CAP
1 *930:B1 2.26128e-05
2 *834:Y 2.26128e-05
3 *833:A 0.00025573
4 *279:3 6.9757e-05
5 *279:4 5.15297e-05
6 *279:5 0.00898138
7 *279:6 0.000857092
8 *279:7 3.46729e-05
9 *279:8 5.64634e-05
10 *279:9 0.00814224
11 *279:10 0.000268612
12 *279:11 3.56322e-05
13 *279:12 3.56322e-05

*RES
1 *279:10 *833:A 15.5804
2 *279:11 *279:10 8.75853
3 *279:11 *279:12 2.01516
4 *279:9 *279:12 8.75853
5 *279:5 *279:9 571.712463
6 *279:6 *279:5 61.2923
7 *279:7 *279:6 8.75853
8 *279:8 *930:B1 8.75853
9 *279:8 *279:7 2.02388
10 *279:3 *279:8 2.16346
11 *279:4 *279:3 6.48166
12 *834:Y *279:4 8.75853
*END

*D_NET *280 0.00390442

*CONN
*I *835:Y O *C 950.13 291.23 *L 0 *D INVX1
*I *834:A I *C 950.3 331.645 *L 0.0012 *D INVX3

*CAP
1 *835:Y 2.26597e-05
2 *834:A 2.26597e-05
3 *280:2 0.00174237
4 *280:3 0.00174706
5 *280:4 0.000187169
6 *280:5 0.000182504

*RES
1 *280:5 *834:A 8.76017
2 *280:4 *280:5 11.4335
3 *280:3 *280:4 1.08019
4 *280:2 *280:3 131.827042
5 *835:Y *280:2 8.76017
*END

*D_NET *281 0.0327901

*CONN
*I *907:B1 I *C 765.98 337.09 *L 0.000212 *D AOI22XL
*I *903:B1 I *C 826.18 248.17 *L 0.000212 *D AOI22XL
*I *900:B1 I *C 893.58 248.17 *L 0.000212 *D AOI22XL
*I *910:B1 I *C 950.18 248.17 *L 0.000212 *D AOI22XL
*I *836:Y O *C 764.965 337.295 *L 0 *D CLKINVX6
*I *835:A I *C 949.9 290.605 *L 0.000395 *D INVX1

*CAP
1 *907:B1 2.26576e-05
2 *903:B1 2.26576e-05
3 *900:B1 2.26576e-05
4 *910:B1 2.26576e-05
5 *836:Y 2.26576e-05
6 *835:A 2.26576e-05
7 *281:6 0.000303858
8 *281:7 0.000322203
9 *281:8 1.96457e-05
10 *281:9 1.96457e-05
11 *281:10 0.00278127
12 *281:11 0.0027853
13 *281:12 7.26274e-05
14 *281:13 5.46246e-05
15 *281:16 5.65412e-05
16 *281:17 0.00446771
17 *281:18 0.00321539
18 *281:19 0.00448599
19 *281:20 1.78659e-05
20 *281:21 5.65412e-05
21 *281:22 1.77975e-05
22 *281:23 1.77975e-05
23 *281:24 0.00323784
24 *281:25 3.3336e-05
25 *281:26 0.00161498
26 *281:27 0.00161498
27 *281:28 0.000101993
28 *281:29 0.00159636
29 *281:30 0.000101993
30 *281:31 0.00159636
31 *281:32 3.29253e-05
32 *281:33 0.00171082
33 *281:34 0.00170616
34 *281:35 3.06664e-05
35 *281:36 0.000300024
36 *281:37 0.000280858

*RES
1 *281:34 *835:A 8.75889
2 *281:33 *281:34 128.286
3 *281:35 *910:B1 8.75889
4 *281:33 *281:37 1.07542
5 *281:35 *281:36 1.39538
6 *281:36 *281:37 18.0333
7 *281:10 *281:36 8.75889
8 *281:9 *900:B1 8.75889
9 *281:11 *281:10 206.943
10 *281:9 *281:8 0.75546
11 *281:32 *281:11 1.05764
12 *281:12 *281:8 8.75889
13 *281:12 *281:32 1.47093
14 *281:13 *281:12 2.9463
15 *281:13 *281:31 1.05764
16 *281:29 *281:31 117.896
17 *281:29 *281:30 1.05764
18 *281:28 *281:30 6.62583
19 *281:27 *281:28 1.05764
20 *281:22 *903:B1 8.75889
21 *281:26 *281:27 119.38
22 *281:22 *281:23 0.69769
23 *281:25 *281:26 1.05764
24 *281:24 *281:23 8.75889
25 *281:24 *281:25 1.47537
26 *281:18 *281:24 222.594
27 *281:17 *281:18 8.75889
28 *281:20 *907:B1 8.75889
29 *281:15 *281:20 1.02209
30 *281:17 *281:19 291.234375
31 *281:21 *281:20 8.75889
32 *281:7 *281:19 2.15973
33 *281:16 *281:21 3.88395
34 *281:7 *281:6 21.1662
35 *281:6 *281:16 8.75889
36 *281:6 *836:Y 8.75889
37 *281:14 *281:6 1.02209
*END

*D_NET *282 0.0209026

*CONN
*I *837:Y O *C 551.75 336.885 *L 0 *D INVX4
*I *836:A I *C 764.1 337.155 *L 0.00241 *D CLKINVX6

*CAP
1 *837:Y 0.000346556
2 *836:A 2.26956e-05
3 *282:4 0.000359397
4 *282:5 1.79176e-05
5 *282:6 0.00978121
6 *282:7 0.00978524
7 *282:8 0.000287876
8 *282:9 1.79176e-05
9 *282:10 0.000283844

*RES
1 *282:9 *836:A 8.75749
2 *282:3 *282:9 1.02711
3 *282:10 *282:9 8.75749
4 *282:8 *282:10 19.9044
5 *282:7 *282:8 1.02711
6 *282:6 *282:7 708.556274
7 *837:Y *282:4 20.9747
8 *282:5 *282:6 8.75749
9 *282:5 *282:4 8.75749
10 *282:2 *282:5 1.02711
*END

*D_NET *283 0.0209553

*CONN
*I *838:Y O *C 337.35 336.885 *L 0 *D INVX4
*I *837:A I *C 551.585 337.005 *L 0.00161 *D INVX4

*CAP
1 *838:Y 0.000148585
2 *837:A 2.25937e-05
3 *283:2 0.01028248
4 *283:5 0.000161451
5 *283:6 1.78867e-05
6 *283:7 0.00898021
7 *283:8 1.0983e-05
8 *283:9 0.00132016
9 *283:10 1.0983e-05

*RES
1 *283:10 *837:A 8.76373
2 *283:4 *283:8 0.784071
3 *283:8 *283:10 0.158799
4 *283:9 *283:8 8.76373
5 *283:2 *283:9 95.071
6 *283:7 *283:2 650.441162
7 *838:Y *283:5 8.992
8 *283:6 *283:7 8.76373
9 *283:6 *283:5 8.76373
10 *283:3 *283:6 1.02227
*END

*D_NET *284 0.0215199

*CONN
*I *839:Y O *C 251.55 473.685 *L 0 *D INVX4
*I *838:A I *C 337.185 337.005 *L 0.00161 *D INVX4

*CAP
1 *839:Y 2.26506e-05
2 *838:A 2.26506e-05
3 *284:2 0.00189546
4 *284:3 0.00189546
5 *284:4 0.00428372
6 *284:5 0.000153379
7 *284:6 0.000171661
8 *284:7 0.00440477
9 *284:8 0.00428372
10 *284:9 0.00438649

*RES
1 *284:5 *838:A 8.7629
2 *284:5 *284:6 9.75243
3 *284:6 *284:7 2.15757
4 *284:7 *284:9 334.275696
5 *284:2 *839:Y 8.7629
6 *284:8 *284:9 8.7629
7 *284:3 *284:2 139.186
8 *284:4 *284:8 257.888
9 *284:4 *284:3 8.7629
*END

*D_NET *285 0.00434554

*CONN
*I *840:Y O *C 250.33 517.79 *L 0 *D INVX1
*I *839:A I *C 251.385 473.805 *L 0.00161 *D INVX4

*CAP
1 *840:Y 2.08384e-05
2 *839:A 2.26587e-05
3 *285:2 0.0017805
4 *285:3 0.0017805
5 *285:4 2.29575e-05
6 *285:5 2.76306e-05
7 *285:6 3.09995e-05
8 *285:7 2.63265e-05
9 *285:8 3.36892e-05
10 *285:2 *26:2 0.00014536
11 *285:3 *26:3 0.00014536
12 *285:4 *26:2 1.21e-06
13 *285:5 *26:3 1.21e-06
14 *285:6 *26:2 1.52e-06
15 *285:7 *26:3 1.52000397e-06
16 *285:2 *297:9 0.00014536
17 *285:3 *297:8 0.00014536
18 *285:4 *297:9 2.68e-06
19 *285:5 *297:8 2.68e-06
20 *285:6 *297:9 3.59e-06
21 *285:7 *297:8 3.59000386e-06

*RES
1 *285:7 *839:A 8.76077
2 *285:7 *285:6 1.69035
3 *285:6 *285:3 1.07695
4 *285:3 *285:2 153.432907
5 *285:5 *285:2 1.07695
6 *285:5 *285:4 1.35321
7 *285:8 *285:4 8.76077
8 *840:Y *285:8 1.20806
*END

*D_NET *286 0.0172894

*CONN
*I *841:Y O *C 250.13 701.63 *L 0 *D INVX3
*I *840:A I *C 250.1 518.415 *L 0.000395 *D INVX1

*CAP
1 *841:Y 8.03432e-05
2 *840:A 0.000105879
3 *286:2 0.000118584
4 *286:3 0.00816324
5 *286:4 9.31732e-05
6 *286:5 0.00816324
7 *286:5 *292:3 0.00015003
8 *286:3 *292:4 0.00015003
9 *286:5 *292:5 3.03e-06
10 *286:3 *292:6 3.03e-06
11 *286:5 *292:7 9.824e-05
12 *286:3 *292:8 9.824e-05
13 *286:5 *292:9 5.16e-06
14 *286:3 *292:10 5.16e-06
15 *286:5 *292:11 2.021e-05
16 *286:3 *292:12 2.021e-05
17 *286:5 *292:13 5.85e-06
18 *286:3 *292:14 5.84999967e-06

*RES
1 *286:4 *841:Y 5.02187
2 *286:5 *286:4 8.76266
3 *286:3 *286:5 671.660217
4 *286:2 *840:A 5.94426
5 *286:2 *286:3 8.76266
*END

*D_NET *287 0.0187463

*CONN
*I *958:A I *C 1325.5649 250.01 *L 0.00021 *D AND2X1
*I *940:A1 I *C 1262.1 248.615 *L 0.000212 *D AOI21XL
*I *956:B I *C 1202.2 247.995 *L 0.000212 *D NAND2XL
*I *842:Y O *C 1387.54 250.34 *L 0 *D BUFX3

*CAP
1 *958:A 2.26887e-05
2 *940:A1 2.26887e-05
3 *956:B 2.26887e-05
4 *842:Y 2.26887e-05
5 *287:4 3.1197e-05
6 *287:5 3.1197e-05
7 *287:6 0.00298735
8 *287:7 0.00301322
9 *287:8 5.69797e-05
10 *287:9 0.00281375
11 *287:10 0.00563222
12 *287:11 0.00284555
13 *287:14 1.7876e-05
14 *287:15 8.15591e-05
15 *287:16 8.15591e-05
16 *287:17 3.31737e-05
17 *287:18 1.7876e-05
18 *287:19 2.92203e-05
19 *287:9 *433:10 0.00016638
20 *287:10 *433:7 0.000166379993
21 *287:6 *46:10 1.305e-05
22 *287:7 *46:8 1.305e-05
23 *287:8 *46:2 1.72e-06
24 *287:9 *46:3 1.72e-06
25 *287:9 *46:2 0.00018103
26 *287:10 *46:3 0.00018103
27 *287:10 *46:2 0.00012922
28 *287:11 *46:3 0.000129219993

*RES
1 *287:13 *287:18 1.04937
2 *287:18 *842:Y 8.75902
3 *287:19 *287:18 8.75902
4 *287:17 *287:19 1.46698
5 *287:6 *287:17 1.06008
6 *287:5 *956:B 8.75902
7 *287:16 *958:A 8.75902
8 *287:7 *287:6 223.066
9 *287:5 *287:4 2.44139
10 *287:15 *287:16 4.86493
11 *287:8 *287:7 3.17666
12 *287:11 *287:4 8.75902
13 *287:9 *287:15 8.75902
14 *287:9 *287:8 2.53419
15 *287:11 *287:10 220.168
16 *287:10 *287:9 233.91655
17 *287:14 *940:A1 8.75902
18 *287:14 *287:10 8.75902
19 *287:12 *287:14 1.05294
*END

*D_NET *288 0.0330917

*CONN
*I *953:B I *C 250.1 577.695 *L 0.000392 *D NAND2X1
*I *952:A I *C 249.965 521.39 *L 0.00021 *D AND2X1
*I *843:Y O *C 251.365 854.765 *L 0 *D CLKINVX6

*CAP
1 *953:B 2.27177e-05
2 *952:A 2.27177e-05
3 *843:Y 2.27177e-05
4 *288:3 0.00726245
5 *288:4 0.0072578
6 *288:5 0.000614818
7 *288:6 0.000619472
8 *288:7 0.000149826
9 *288:8 0.000149826
10 *288:9 0.00166304
11 *288:10 0.00166304
12 *288:11 9.64116e-05
13 *288:12 9.64116e-05
14 *288:13 0.000258981
15 *288:14 0.000254216
16 *288:15 0.000756332
17 *288:16 0.000756332
18 *288:17 3.18047e-05
19 *288:18 5.02005e-05
20 *288:19 0.00446042
21 *288:20 0.00444679
22 *288:22 1.79525e-05
23 *288:23 4.95356e-05
24 *288:24 4.54353e-05
25 *288:25 4.95356e-05
26 *288:26 4.54353e-05
27 *288:17 *256:7 1.124e-05
28 *288:18 *256:6 1.124e-05
29 *288:19 *256:7 0.00034474
30 *288:20 *256:6 0.000344740005
31 *288:3 *438:14 8.787e-05
32 *288:4 *438:12 8.787e-05
33 *288:3 *438:8 1.442e-05
34 *288:4 *438:6 1.442e-05
35 *288:15 *438:4 5.437e-05
36 *288:16 *438:2 5.437e-05
37 *288:3 *438:4 2.87e-06
38 *288:4 *438:2 2.86999576e-06
39 *288:3 *429:7 5.609e-05
40 *288:4 *429:8 5.609e-05
41 *288:3 *429:9 3.882e-05
42 *288:4 *429:10 3.882e-05
43 *288:3 *429:11 0.00012474
44 *288:4 *429:12 0.00012474
45 *288:3 *429:13 0.00011231
46 *288:4 *429:14 0.000112309986
47 *288:3 *298:2 8.72e-05
48 *288:4 *298:3 8.72e-05
49 *288:3 *298:2 0.00017809
50 *288:4 *298:3 0.00017809
51 *288:3 *298:4 1.03e-06
52 *288:4 *298:5 1.02998494e-06

*RES
1 *288:17 *843:Y 8.76384
2 *288:18 *288:17 2.19742
3 *288:19 *288:18 2.15434
4 *288:20 *288:19 361.015
5 *288:20 *288:15 1.07717
6 *288:16 *288:15 59.2356
7 *288:3 *288:16 1.07717
8 *288:4 *953:B 8.76384
9 *288:4 *288:3 564.746216
10 *288:24 *288:4 8.76384
11 *288:24 *288:26 2.11125
12 *288:5 *288:26 8.76384
13 *288:6 *288:5 42.5783
14 *288:6 *288:7 1.07717
15 *288:8 *288:7 9.79792
16 *288:11 *288:8 1.07717
17 *288:12 *288:11 8.17786
18 *288:12 *288:9 1.07717
19 *288:10 *288:9 123.03
20 *288:13 *288:10 1.07717
21 *288:14 *288:13 18.7513
22 *288:25 *288:14 8.76384
23 *288:23 *288:25 2.80925
24 *288:22 *952:A 8.76384
25 *288:22 *288:23 8.76384
26 *288:21 *288:22 1.05132
*END

*D_NET *289 0.013912

*CONN
*I *844:Y O *C 257.73 993.17 *L 0 *D INVX3
*I *843:A I *C 250.5 854.905 *L 0.00241 *D CLKINVX6

*CAP
1 *844:Y 2.00834e-05
2 *843:A 2.26566e-05
3 *289:2 7.34927e-05
4 *289:3 7.34927e-05
5 *289:4 3.47066e-05
6 *289:5 3.58991e-05
7 *289:6 3.3577e-05
8 *289:7 3.3577e-05
9 *289:8 6.32627e-05
10 *289:9 3.3577e-05
11 *289:10 6.32627e-05
12 *289:11 3.58991e-05
13 *289:12 3.3577e-05
14 *289:13 3.47066e-05
15 *289:14 0.000350456
16 *289:15 4.29911e-05
17 *289:16 0.000350456
18 *289:17 4.41835e-05
19 *289:18 0.000152697
20 *289:19 0.000384911
21 *289:20 0.000384911
22 *289:21 0.000151441
23 *289:22 0.00129337
24 *289:23 0.00129802
25 *289:24 0.00411302
26 *289:25 3.28866e-05
27 *289:26 0.00410831
28 *289:26 *300:2 0.00028162
29 *289:24 *300:3 0.00028162
30 *289:20 *300:4 2.465e-05
31 *289:19 *300:5 2.46499717e-05

*RES
1 *289:25 *844:Y 1.2102
2 *289:26 *289:25 8.76122
3 *289:24 *289:26 333.24173
4 *289:20 *289:24 1.07799
5 *289:19 *289:20 30.0414
6 *289:19 *289:23 1.07799
7 *289:22 *289:23 97.1057
8 *289:21 *289:22 8.76122
9 *289:18 *289:21 8.45613
10 *289:17 *289:18 1.30173
11 *289:15 *289:17 1.81021
12 *289:16 *289:15 8.76122
13 *289:14 *289:16 24.804
14 *289:13 *289:14 8.76122
15 *289:11 *289:13 1.20003
16 *289:11 *289:12 1.30173
17 *289:9 *289:12 1.2102
18 *289:9 *289:10 1.30173
19 *289:8 *289:10 3.02041
20 *289:7 *289:8 1.30173
21 *289:6 *289:7 1.2102
22 *289:5 *289:6 1.30173
23 *289:4 *289:5 1.20003
24 *289:2 *289:4 8.76122
25 *289:3 *289:2 4.71367
26 *843:A *289:3 8.76122
*END

*D_NET *290 0.0295323

*CONN
*I *955:B I *C 250.975 701.425 *L 0.000392 *D NOR2X1
*I *947:A1 I *C 250.9 461.225 *L 0.000212 *D AOI21XL
*I *961:B I *C 249.775 462.025 *L 0.000392 *D NOR2X1
*I *845:Y O *C 259.965 751.115 *L 0 *D CLKINVX6

*CAP
1 *955:B 2.26413e-05
2 *947:A1 2.80555e-05
3 *961:B 2.26413e-05
4 *845:Y 2.26413e-05
5 *290:4 9.30261e-05
6 *290:5 0.000114683
7 *290:6 0.01075214
8 *290:7 0.0100578
9 *290:8 0.00154322
10 *290:9 0.00224854
11 *290:10 0.000735021
12 *290:11 0.000739615
13 *290:13 3.97042e-05
14 *290:14 6.49706e-05
15 *290:15 0.0001283
16 *290:16 7.64553e-05
17 *290:17 1.78833e-05
18 *290:18 8.46586e-05
19 *290:19 0.0001283
20 *290:20 8.46586e-05
21 *290:21 0.000383589
22 *290:22 0.000383589
23 *290:23 2.24772e-05
24 *290:6 *464:2 0.00028173
25 *290:7 *464:3 0.00028173
26 *290:6 *464:4 7.89e-06
27 *290:7 *464:5 7.89000503e-06
28 *290:8 *193:2 0.00011046
29 *290:9 *193:3 0.00011046
30 *290:9 *193:2 5.213e-05
31 *290:6 *193:3 5.213e-05
32 *290:6 *193:2 0.00041648
33 *290:7 *193:3 0.000416479994

*RES
1 *947:A1 *290:16 2.6006
2 *290:14 *290:16 2.42
3 *290:13 *961:B 8.76498
4 *290:10 *845:Y 8.76498
5 *290:5 *290:14 8.76498
6 *290:13 *290:5 2.14309
7 *290:11 *290:10 53.8541
8 *290:5 *290:4 5.141
9 *290:23 *290:11 1.07154
10 *290:15 *290:4 8.76498
11 *290:22 *290:23 8.76498
12 *290:15 *290:19 7.75364
13 *290:21 *290:22 19.9379
14 *290:7 *290:19 8.76498
15 *290:8 *290:21 8.76498
16 *290:6 *290:9 56.1537
17 *290:7 *290:6 789.041138
18 *290:9 *290:8 120.506
19 *290:20 *290:9 8.76498
20 *290:18 *290:20 4.93632
21 *290:17 *955:B 8.76498
22 *290:17 *290:18 8.76498
23 *290:12 *290:17 1.02338
*END

*D_NET *291 0.0230153

*CONN
*I *846:Y O *C 259.615 995.57 *L 0 *D CLKINVX4
*I *845:A I *C 259.1 750.975 *L 0.00241 *D CLKINVX6

*CAP
1 *846:Y 2.26982e-05
2 *845:A 1.97443e-05
3 *291:2 0.01018854
4 *291:3 0.00933207
5 *291:4 5.39471e-05
6 *291:5 4.92831e-05
7 *291:6 3.24926e-05
8 *291:7 0.000883675
9 *291:8 7.18258e-05
10 *291:9 6.71618e-05
11 *291:9 *293:2 4.5e-06
12 *291:8 *293:3 4.5e-06
13 *291:7 *293:2 5.719e-05
14 *291:2 *293:3 5.719e-05
15 *291:2 *293:2 0.00018567
16 *291:3 *293:3 0.00018567
17 *291:2 *293:3 0.00047995
18 *291:3 *293:4 0.00047995
19 *291:4 *293:3 1.23e-06
20 *291:5 *293:4 1.23003551e-06
21 *291:2 *299:2 0.00041644
22 *291:3 *299:3 0.00041644
23 *291:4 *299:2 1.99e-06
24 *291:5 *299:3 1.99002586e-06

*RES
1 *291:9 *846:Y 8.75714
2 *291:8 *291:9 4.70983
3 *291:7 *291:8 1.07206
4 *291:2 *291:7 69.6235
5 *291:3 *291:2 789.419678
6 *291:4 *291:3 1.07206
7 *291:5 *291:4 2.69821
8 *291:6 *845:A 1.20456
9 *291:6 *291:5 8.75714
*END

*D_NET *292 0.0293185

*CONN
*I *959:B I *C 249.605 644.73 *L 0.000212 *D NOR2XL
*I *957:B I *C 249.605 398.49 *L 0.000212 *D NOR2XL
*I *847:Y O *C 260.165 689.555 *L 0 *D CLKINVX6

*CAP
1 *959:B 2.26767e-05
2 *957:B 2.26767e-05
3 *847:Y 2.26767e-05
4 *292:3 0.00209073
5 *292:4 0.00209073
6 *292:5 4.37057e-05
7 *292:6 4.84136e-05
8 *292:7 0.00138367
9 *292:8 0.00138367
10 *292:9 7.94078e-05
11 *292:10 7.94078e-05
12 *292:11 0.000327361
13 *292:12 0.000327361
14 *292:13 0.000133392
15 *292:14 0.000133392
16 *292:15 5.90066e-05
17 *292:16 4.54319e-05
18 *292:17 6.89718e-05
19 *292:18 6.42638e-05
20 *292:19 0.000108283
21 *292:20 0.000108283
22 *292:21 0.00512871
23 *292:22 0.00514228
24 *292:23 9.73765e-05
25 *292:24 0.000105537
26 *292:25 2.05581e-05
27 *292:26 1.58502e-05
28 *292:27 3.60944e-05
29 *292:28 3.60944e-05
30 *292:29 0.00107773
31 *292:30 0.00107773
32 *292:31 3.74284e-05
33 *292:32 3.74284e-05
34 *292:33 6.04974e-05
35 *292:34 6.04974e-05
36 *292:35 3.53098e-05
37 *292:36 0.00048547
38 *292:37 5.05322e-05
39 *292:38 0.00048547
40 *292:39 4.99045e-05
41 *292:40 0.000100907
42 *292:41 9.6278e-05
43 *292:42 3.4682e-05
44 *292:43 0.00188076
45 *292:44 0.00188546
46 *292:23 *429:11 3.92e-06
47 *292:24 *429:12 3.92e-06
48 *292:23 *429:22 1.398e-05
49 *292:24 *429:21 1.398e-05
50 *292:25 *429:21 3.92e-06
51 *292:26 *429:20 3.92e-06
52 *292:27 *429:13 4.31e-06
53 *292:28 *429:14 4.31e-06
54 *292:29 *429:19 7.83e-06
55 *292:30 *429:18 7.83e-06
56 *292:5 *429:21 7.18e-06
57 *292:6 *429:20 7.18e-06
58 *292:31 *429:13 2.06e-06
59 *292:32 *429:14 2.06e-06
60 *292:7 *429:13 0.00010987
61 *292:8 *429:14 0.00010987
62 *292:7 *429:19 4.31e-06
63 *292:8 *429:18 4.31e-06
64 *292:13 *429:21 5.16e-06
65 *292:14 *429:20 5.16e-06
66 *292:29 *429:5 0.00019352
67 *292:30 *429:6 0.000193519999
68 *292:29 *316:19 8.963e-05
69 *292:30 *316:20 8.963e-05
70 *292:29 *316:21 2.87e-06
71 *292:30 *316:22 2.87e-06
72 *292:3 *316:11 0.00017107
73 *292:4 *316:12 0.00017107
74 *292:21 *316:13 0.00019503
75 *292:22 *316:14 0.00019503
76 *292:21 *316:14 1.61e-06
77 *292:22 *316:34 1.61e-06
78 *292:21 *316:33 4.69e-06
79 *292:22 *316:32 4.69e-06
80 *292:9 *316:21 5.19e-06
81 *292:10 *316:22 5.19e-06
82 *292:11 *316:15 1.668e-05
83 *292:12 *316:16 1.668e-05
84 *292:11 *316:16 5.19e-06
85 *292:12 *316:17 5.19e-06
86 *292:21 *316:30 3.81e-06
87 *292:22 *316:28 3.81e-06
88 *292:19 *316:27 6.37e-06
89 *292:20 *316:26 6.37e-06
90 *292:21 *316:27 0.00017757
91 *292:22 *316:26 0.000177569996
92 *292:3 *286:5 0.00015003
93 *292:4 *286:3 0.00015003
94 *292:5 *286:5 3.03e-06
95 *292:6 *286:3 3.03e-06
96 *292:7 *286:5 9.824e-05
97 *292:8 *286:3 9.824e-05
98 *292:9 *286:5 5.16e-06
99 *292:10 *286:3 5.16e-06
100 *292:11 *286:5 2.021e-05
101 *292:12 *286:3 2.021e-05
102 *292:13 *286:5 5.85e-06
103 *292:14 *286:3 5.84999967e-06

*RES
1 *292:18 *957:B 8.75988
2 *292:18 *292:17 3.78931
3 *292:20 *292:17 1.11489
4 *292:20 *292:19 7.69807
5 *292:19 *292:16 1.11489
6 *292:16 *292:15 2.27624
7 *292:41 *847:Y 8.75988
8 *292:22 *292:15 2.22979
9 *292:40 *292:41 6.70263
10 *292:22 *292:21 434.91452
11 *292:40 *292:44 1.07508
12 *292:12 *292:21 1.11489
13 *292:43 *292:44 141.465
14 *292:12 *292:11 27.66
15 *292:42 *292:43 8.75988
16 *292:11 *292:4 1.11489
17 *292:39 *292:42 1.19453
18 *292:4 *292:3 186.22
19 *292:38 *292:39 2.60142
20 *292:10 *292:3 1.11489
21 *292:36 *292:38 27.1888
22 *292:10 *292:9 6.477
23 *292:36 *292:37 2.60142
24 *292:9 *292:30 1.11489
25 *292:26 *959:B 8.75988
26 *292:35 *292:37 1.17462
27 *292:30 *292:29 101.634
28 *292:26 *292:25 0.763171
29 *292:23 *292:35 8.75988
30 *292:8 *292:29 1.11489
31 *292:25 *292:24 1.11489
32 *292:24 *292:23 7.76443
33 *292:8 *292:7 122.512
34 *292:34 *292:24 8.75988
35 *292:7 *292:28 1.11489
36 *292:33 *292:34 2.92659
37 *292:28 *292:27 2.09042
38 *292:5 *292:33 8.75988
39 *292:32 *292:27 1.11489
40 *292:6 *292:5 3.49731
41 *292:32 *292:31 2.09042
42 *292:13 *292:6 1.11489
43 *292:14 *292:31 1.11489
44 *292:14 *292:13 9.2775
*END

*D_NET *293 0.0303304

*CONN
*I *848:Y O *C 260.165 997.355 *L 0 *D CLKINVX6
*I *847:A I *C 259.3 689.415 *L 0.00241 *D CLKINVX6

*CAP
1 *848:Y 2.28247e-05
2 *847:A 2.28247e-05
3 *293:2 0.00374523
4 *293:3 0.01438287
5 *293:4 0.0106602
6 *293:5 2.21663e-05
7 *293:6 1.75575e-05
8 *293:2 *291:9 4.5e-06
9 *293:3 *291:8 4.5e-06
10 *293:2 *291:7 5.719e-05
11 *293:3 *291:2 5.719e-05
12 *293:2 *291:2 0.00018567
13 *293:3 *291:3 0.00018567
14 *293:3 *291:2 0.00047995
15 *293:4 *291:3 0.00047995
16 *293:3 *291:4 1.23e-06
17 *293:4 *291:5 1.23003551e-06

*RES
1 *293:6 *848:Y 8.76316
2 *293:5 *293:6 0.672242
3 *293:2 *293:5 1.08039
4 *293:3 *293:2 301.849
5 *293:4 *293:3 786.715332
6 *847:A *293:4 8.76316
*END

*D_NET *294 0.0205251

*CONN
*I *849:Y O *C 259.95 1215.825 *L 0 *D INVX4
*I *848:A I *C 259.3 997.215 *L 0.00241 *D CLKINVX6

*CAP
1 *849:Y 2.00145e-05
2 *848:A 2.26925e-05
3 *294:2 0.00921864
4 *294:3 0.00923696
5 *294:4 0.000349689
6 *294:5 0.000331366
7 *294:6 3.28406e-05
8 *294:2 *311:21 0.0006346
9 *294:3 *311:20 0.0006346
10 *294:4 *311:19 2.186e-05
11 *294:5 *311:18 2.18599983e-05

*RES
1 *849:Y *294:6 1.21084
2 *294:2 *294:6 8.76142
3 *294:3 *294:2 748.61615
4 *294:4 *294:3 2.14752
5 *294:5 *294:4 24.9021
6 *848:A *294:5 8.76142
*END

*D_NET *295 0.0218311

*CONN
*I *950:A0 I *C 262.56 1770.11 *L 0.000211 *D AOI21XL
*I *850:Y O *C 262.55 1535.755 *L 0 *D INVX4

*CAP
1 *950:A0 2.27694e-05
2 *850:Y 2.27694e-05
3 *295:2 0.01065854
4 *295:3 0.000194028
5 *295:4 0.000194028
6 *295:5 0.0102916
7 *295:6 0.00038952
8 *295:7 3.13893e-05
9 *295:8 2.66728e-05

*RES
1 *295:8 *950:A0 8.75532
2 *295:7 *295:8 1.35342
3 *295:5 *850:Y 8.75532
4 *295:4 *295:7 1.07795
5 *295:2 *295:6 27.2241
6 *295:5 *295:2 784.936279
7 *295:3 *295:4 12.9952
8 *295:3 *295:6 1.07795
*END

*D_NET *296 0.0307683

*CONN
*I *851:Y O *C 260.965 1395.125 *L 0 *D CLKINVX6
*I *850:A I *C 262.385 1535.635 *L 0.00161 *D INVX4
*I *849:A I *C 259.785 1215.9449 *L 0.00161 *D INVX4

*CAP
1 *851:Y 2.25946e-05
2 *850:A 9.92946e-06
3 *849:A 9.82813e-06
4 *296:3 0.0052007
5 *296:4 0.00519604
6 *296:5 0.00230201
7 *296:6 0.00230667
8 *296:7 0.000409539
9 *296:8 0.000409539
10 *296:9 0.00664007
11 *296:10 0.000143673
12 *296:11 0.00650329
13 *296:12 0.00011966
14 *296:13 3.46518e-05
15 *296:14 0.000193624
16 *296:15 4.98499e-05
17 *296:16 1.69206e-05
18 *296:17 0.000113885
19 *296:18 0.000193624
20 *296:19 4.98499e-05
21 *296:20 3.46518e-05
22 *296:21 4.25548e-05
23 *296:22 3.66782e-05
24 *296:23 1.69206e-05
25 *296:3 *302:5 0.00035573
26 *296:4 *302:4 0.000355729992

*RES
1 *296:23 *850:A 0.605075
2 *296:22 *296:23 0.650455
3 *296:21 *296:22 1.81522
4 *296:11 *296:21 8.75846
5 *296:9 *296:11 495.677216
6 *296:9 *851:Y 8.75846
7 *296:10 *296:9 8.7282
8 *296:20 *296:10 8.75846
9 *296:19 *296:20 1.19502
10 *296:18 *296:19 2.60182
11 *296:14 *296:18 9.66607
12 *296:16 *849:A 0.605075
13 *296:14 *296:15 2.60182
14 *296:16 *296:17 0.650455
15 *296:13 *296:15 1.19502
16 *296:12 *296:17 6.04318
17 *296:5 *296:13 8.75846
18 *296:4 *296:12 8.75846
19 *296:6 *296:5 172.772
20 *296:4 *296:3 423.303
21 *296:7 *296:6 1.07401
22 *296:8 *296:3 1.07401
23 *296:8 *296:7 30.0495
*END

*D_NET *297 0.0235453

*CONN
*I *954:B I *C 250.205 579.75 *L 0.000212 *D NOR2XL
*I *960:B I *C 250.405 343.77 *L 0.000212 *D NOR2XL
*I *852:Y O *C 250.75 581.575 *L 0 *D INVX4

*CAP
1 *954:B 2.81095e-05
2 *960:B 2.26414e-05
3 *852:Y 2.26414e-05
4 *297:3 0.000244527
5 *297:4 0.000244527
6 *297:5 4.67353e-05
7 *297:6 0.00559456
8 *297:7 0.00559926
9 *297:8 0.00274311
10 *297:9 0.00274311
11 *297:10 0.00219562
12 *297:11 0.00219562
13 *297:12 7.53574e-05
14 *297:13 7.53574e-05
15 *297:14 9.80842e-05
16 *297:15 9.80842e-05
17 *297:16 4.53682e-05
18 *297:17 4.53682e-05
19 *297:18 8.27906e-05
20 *297:19 3.15271e-05
21 *297:20 0.000133285
22 *297:21 6.20289e-05
23 *297:9 *285:2 0.00014536
24 *297:8 *285:3 0.00014536
25 *297:9 *285:4 2.68e-06
26 *297:8 *285:5 2.68e-06
27 *297:9 *285:6 3.59e-06
28 *297:8 *285:7 3.59000386e-06
29 *297:9 *316:7 2.187e-05
30 *297:8 *316:8 2.187e-05
31 *297:7 *316:9 3.92e-06
32 *297:6 *316:10 3.92e-06
33 *297:13 *316:11 4.36e-06
34 *297:12 *316:12 4.36e-06
35 *297:11 *316:11 0.00016357
36 *297:10 *316:12 0.00016357
37 *297:9 *316:13 0.00019434
38 *297:8 *316:14 0.00019434
39 *297:4 *316:15 1.461e-05
40 *297:3 *316:16 1.461e-05
41 *297:9 *316:16 4.55e-06
42 *297:8 *316:17 4.54999656e-06

*RES
1 *297:5 *954:B 2.60347
2 *297:5 *297:19 1.54348
3 *297:21 *852:Y 8.75881
4 *297:20 *297:19 8.75881
5 *297:20 *297:21 7.20912
6 *297:18 *297:20 8.8022
7 *297:13 *297:18 1.07858
8 *297:6 *960:B 8.75881
9 *297:12 *297:13 4.72963
10 *297:6 *297:7 406.240021
11 *297:12 *297:17 1.07858
12 *297:7 *297:14 1.07858
13 *297:16 *297:17 2.19435
14 *297:14 *297:15 5.40529
15 *297:11 *297:16 1.07858
16 *297:8 *297:15 1.07858
17 *297:10 *297:11 173.05
18 *297:8 *297:9 224.667
19 *297:4 *297:10 1.07858
20 *297:3 *297:9 1.07858
21 *297:3 *297:4 17.747
*END

*D_NET *298 0.00914985

*CONN
*I *853:Y O *C 257.73 668.76 *L 0 *D INVX2
*I *852:A I *C 250.585 581.455 *L 0.00161 *D INVX4

*CAP
1 *853:Y 3.01205e-05
2 *852:A 2.26589e-05
3 *298:2 0.00359553
4 *298:3 0.00359553
5 *298:4 1.1302e-05
6 *298:5 1.1302e-05
7 *298:7 5.34378e-05
8 *298:8 5.34378e-05
9 *298:9 3.29186e-05
10 *298:10 3.41256e-05
11 *298:11 0.000307843
12 *298:12 4.41657e-05
13 *298:13 0.000307843
14 *298:2 *193:2 0.00025858
15 *298:3 *193:3 0.000258580004
16 *298:2 *288:3 8.72e-05
17 *298:3 *288:4 8.72e-05
18 *298:2 *288:3 0.00017809
19 *298:3 *288:4 0.00017809
20 *298:4 *288:3 1.03e-06
21 *298:5 *288:4 1.02998494e-06

*RES
1 *298:12 *853:Y 1.81474
2 *298:12 *298:13 1.30096
3 *298:11 *298:13 17.5205
4 *298:10 *298:11 1.30096
5 *298:9 *298:10 1.20669
6 *298:2 *298:9 8.76261
7 *298:3 *298:2 308.911621
8 *298:8 *298:3 8.76261
9 *298:5 *852:A 8.76261
10 *298:7 *298:8 2.81403
11 *298:5 *298:4 0.22154
12 *298:4 *298:7 8.76261
13 *298:6 *298:4 0.22154
*END

*D_NET *299 0.0208623

*CONN
*I *854:Y O *C 258.15 890.925 *L 0 *D INVX4
*I *853:A I *C 257.3 668.895 *L 0.000801 *D INVX2

*CAP
1 *854:Y 2.27598e-05
2 *853:A 2.27598e-05
3 *299:2 0.0099119
4 *299:3 0.00994376
5 *299:4 4.62783e-05
6 *299:5 7.8142e-05
7 *299:2 *291:2 0.00041644
8 *299:3 *291:3 0.00041644
9 *299:2 *291:4 1.99e-06
10 *299:3 *291:5 1.99002586e-06

*RES
1 *299:2 *854:Y 8.76022
2 *299:3 *299:2 782.165833
3 *299:5 *299:3 3.23436
4 *299:4 *299:5 2.68535
5 *853:A *299:4 8.76022
*END

*D_NET *300 0.0210381

*CONN
*I *855:Y O *C 258.15 1113.225 *L 0 *D INVX4
*I *854:A I *C 257.985 891.045 *L 0.00161 *D INVX4

*CAP
1 *855:Y 2.26442e-05
2 *854:A 2.26442e-05
3 *300:2 0.00418526
4 *300:3 0.00418526
5 *300:4 0.000387871
6 *300:5 0.000369571
7 *300:6 0.0001845
8 *300:7 0.0001845
9 *300:8 0.00466663
10 *300:9 0.00465303
11 *300:10 0.000417921
12 *300:11 0.000413221
13 *300:11 *314:5 2.843e-05
14 *300:10 *314:6 2.843e-05
15 *300:9 *314:5 0.0003184
16 *300:8 *314:6 0.0003184
17 *300:2 *314:7 7.83e-06
18 *300:3 *314:8 7.83e-06
19 *300:7 *314:9 8.62e-06
20 *300:6 *314:7 8.62e-06
21 *300:7 *314:7 2.99e-06
22 *300:6 *314:8 2.98998208e-06
23 *300:2 *289:26 0.00028162
24 *300:3 *289:24 0.00028162
25 *300:4 *289:20 2.465e-05
26 *300:5 *289:19 2.46499717e-05

*RES
1 *300:11 *855:Y 8.76105
2 *300:10 *300:11 31.6387
3 *300:9 *300:10 1.07572
4 *300:8 *300:9 376.995575
5 *300:7 *300:8 2.15143
6 *300:6 *300:7 12.1148
7 *300:6 *300:2 2.15143
8 *300:3 *300:2 337.407
9 *300:4 *300:3 2.15143
10 *300:5 *300:4 27.9341
11 *854:A *300:5 8.76105
*END

*D_NET *301 0.0206349

*CONN
*I *950:A1 I *C 262.7 1770.515 *L 0.000212 *D AOI21XL
*I *856:Y O *C 259.53 1554.05 *L 0 *D INVX3

*CAP
1 *950:A1 2.26399e-05
2 *856:Y 2.26399e-05
3 *301:2 0.00784564
4 *301:3 0.00785031
5 *301:4 7.98986e-05
6 *301:5 7.52269e-05
7 *301:6 0.000213343
8 *301:7 0.000218134
9 *301:8 0.00140368
10 *301:9 0.001399
11 *301:10 0.000114997
12 *301:11 0.00011895
13 *301:12 9.25962e-05
14 *301:13 8.85234e-05
15 *301:2 *312:7 1.072e-05
16 *301:3 *312:6 1.072e-05
17 *301:2 *312:3 0.00052938
18 *301:3 *312:2 0.00052938
19 *301:4 *312:3 4.55e-06
20 *301:5 *312:2 4.55001658e-06

*RES
1 *301:6 *950:A1 8.76542
2 *301:7 *301:6 14.2389
3 *301:7 *301:8 1.08107
4 *301:9 *301:8 104.571
5 *301:13 *301:9 8.76542
6 *301:12 *301:13 5.63909
7 *301:11 *301:12 1.02263
8 *301:10 *301:11 7.05129
9 *301:2 *301:10 8.76542
10 *301:3 *301:2 638.278259
11 *301:4 *301:3 1.08107
12 *301:5 *301:4 5.38586
13 *856:Y *301:5 8.76542
*END

*D_NET *302 0.0208904

*CONN
*I *857:Y O *C 258.15 1335.525 *L 0 *D INVX4
*I *855:A I *C 257.985 1113.345 *L 0.00161 *D INVX4

*CAP
1 *857:Y 2.26891e-05
2 *855:A 2.26891e-05
3 *302:2 2.16902e-05
4 *302:3 3.99557e-05
5 *302:4 0.00935178
6 *302:5 0.00933822
7 *302:6 2.95387e-05
8 *302:7 2.48296e-05
9 *302:7 *314:10 1.37e-06
10 *302:6 *314:5 1.37e-06
11 *302:5 *314:10 0.00034459
12 *302:4 *314:5 0.00034459
13 *302:5 *314:5 0.00031781
14 *302:4 *314:6 0.000317810027
15 *302:5 *296:3 0.00035573
16 *302:4 *296:4 0.000355729992

*RES
1 *302:7 *857:Y 8.76006
2 *302:6 *302:7 1.34217
3 *302:5 *302:6 1.07853
4 *302:4 *302:5 785.361206
5 *302:3 *302:4 2.15706
6 *302:2 *302:3 1.00663
7 *855:A *302:2 8.76006
*END

*D_NET *303 0.0208284

*CONN
*I *858:Y O *C 258.75 1381.855 *L 0 *D INVX4
*I *857:A I *C 257.985 1335.645 *L 0.00161 *D INVX4
*I *856:A I *C 258.9 1554.675 *L 0.0012 *D INVX3

*CAP
1 *858:Y 4.53235e-05
2 *857:A 2.26987e-05
3 *856:A 1.96673e-05
4 *303:3 0.000394159
5 *303:4 0.000412495
6 *303:5 0.00152399
7 *303:6 0.00152399
8 *303:7 0.000319261
9 *303:8 0.000300924
10 *303:9 0.000520813
11 *303:10 0.000520813
12 *303:11 0.00068244
13 *303:12 0.00068244
14 *303:13 5.55268e-05
15 *303:14 6.02588e-05
16 *303:15 0.00484547
17 *303:16 0.00484547
18 *303:17 0.00163201
19 *303:18 3.25323e-05
20 *303:19 0.00162736
21 *303:16 *311:7 0.00032747
22 *303:15 *311:8 0.00032747
23 *303:16 *311:8 3.21e-06
24 *303:15 *311:9 3.21e-06
25 *303:16 *311:9 1.21e-06
26 *303:15 *311:10 1.21e-06
27 *303:12 *311:11 4.85e-05
28 *303:11 *311:12 4.84999741e-05

*RES
1 *303:18 *856:A 1.20973
2 *303:19 *303:18 8.76155
3 *303:17 *303:19 122.692
4 *303:12 *303:17 1.07798
5 *303:11 *303:12 54.1922
6 *303:11 *303:16 1.07798
7 *303:15 *303:16 392.479065
8 *303:10 *303:15 1.07798
9 *303:9 *303:10 38.5436
10 *303:9 *303:14 1.07798
11 *303:13 *303:14 3.36568
12 *858:Y *303:13 8.76155
13 *303:8 *858:Y 8.76155
14 *303:7 *303:8 20.8708
15 *303:6 *303:7 2.14996
16 *303:5 *303:6 114.08
17 *303:4 *303:5 2.14996
18 *303:3 *303:4 27.9435
19 *857:A *303:3 8.76155
*END

*D_NET *304 0.024711

*CONN
*I *949:B I *C 250.765 703.025 *L 0.000392 *D NOR2BX1
*I *859:Y O *C 471.15 702.825 *L 0 *D INVX4

*CAP
1 *949:B 2.26369e-05
2 *859:Y 2.26369e-05
3 *304:3 1.78519e-05
4 *304:4 0.000231891
5 *304:5 0.01206107
6 *304:6 0.000235755
7 *304:7 3.11028e-05
8 *304:8 3.11028e-05
9 *304:9 0.012057

*RES
1 *304:7 *859:Y 8.76107
2 *304:7 *304:8 1.466
3 *304:9 *304:8 8.76107
4 *304:5 *304:9 762.504089
5 *304:5 *304:6 1.02387
6 *304:4 *304:6 15.5209
7 *304:3 *949:B 8.76107
8 *304:3 *304:4 8.76107
9 *304:2 *304:3 1.02387
*END

*D_NET *305 0.0233335

*CONN
*I *860:Y O *C 690.95 702.825 *L 0 *D INVX4
*I *859:A I *C 470.985 702.945 *L 0.00161 *D INVX4

*CAP
1 *860:Y 2.26777e-05
2 *859:A 2.26777e-05
3 *305:2 4.9223e-05
4 *305:3 3.21707e-05
5 *305:4 3.41045e-05
6 *305:5 3.41045e-05
7 *305:6 0.0026206
8 *305:7 0.01152082
9 *305:8 3.1116e-05
10 *305:9 3.1116e-05
11 *305:10 0.00893503

*RES
1 *305:8 *860:Y 8.76484
2 *305:8 *305:9 1.4638
3 *305:10 *305:9 8.76484
4 *305:7 *305:10 588.53772
5 *305:6 *305:7 188.13
6 *305:2 *305:6 2.04752
7 *305:4 *859:A 8.76484
8 *305:3 *305:2 2.44266
9 *305:5 *305:4 1.66137
10 *305:5 *305:3 8.76484
*END

*D_NET *306 0.0219783

*CONN
*I *861:Y O *C 910.55 702.825 *L 0 *D INVX4
*I *860:A I *C 690.785 702.945 *L 0.00161 *D INVX4

*CAP
1 *861:Y 2.27215e-05
2 *860:A 2.27215e-05
3 *306:2 4.90917e-05
4 *306:3 3.21749e-05
5 *306:4 3.41651e-05
6 *306:5 3.41651e-05
7 *306:6 0.01086899
8 *306:7 3.11798e-05
9 *306:8 3.11798e-05
10 *306:9 0.0108521

*RES
1 *306:7 *861:Y 8.76171
2 *306:7 *306:8 1.46818
3 *306:9 *306:8 8.76171
4 *306:6 *306:9 775.955872
5 *306:2 *306:6 2.04835
6 *306:4 *860:A 8.76171
7 *306:3 *306:2 2.43907
8 *306:5 *306:4 1.65762
9 *306:5 *306:3 8.76171
*END

*D_NET *307 0.0224281

*CONN
*I *862:Y O *C 1130.15 702.825 *L 0 *D INVX4
*I *861:A I *C 910.385 702.945 *L 0.00161 *D INVX4

*CAP
1 *862:Y 2.26546e-05
2 *861:A 2.26546e-05
3 *307:2 4.90285e-05
4 *307:3 3.21221e-05
5 *307:4 3.41509e-05
6 *307:5 3.41509e-05
7 *307:6 1.96114e-05
8 *307:7 1.96114e-05
9 *307:8 0.00286682
10 *307:9 0.0110796
11 *307:10 0.00824761

*RES
1 *307:7 *862:Y 8.75795
2 *307:7 *307:6 0.730554
3 *307:10 *307:6 8.75795
4 *307:9 *307:10 569.971436
5 *307:8 *307:9 205.981
6 *307:2 *307:8 2.05251
7 *307:4 *861:A 8.75795
8 *307:3 *307:2 2.44388
9 *307:5 *307:4 1.66114
10 *307:5 *307:3 8.75795
*END

*D_NET *308 0.031082

*CONN
*I *863:Y O *C 1262.165 523.025 *L 0 *D CLKINVX6
*I *862:A I *C 1129.985 702.945 *L 0.00161 *D INVX4

*CAP
1 *863:Y 2.26368e-05
2 *862:A 2.26368e-05
3 *308:2 0.00040638
4 *308:3 0.000388076
5 *308:4 0.00709811
6 *308:5 0.00171574
7 *308:6 0.00173405
8 *308:7 0.00609787
9 *308:8 0.00709811
10 *308:9 0.00609321
11 *308:10 0.000200266
12 *308:11 0.000204923

*RES
1 *308:10 *863:Y 8.75817
2 *308:10 *308:11 13.4528
3 *308:7 *308:11 1.07793
4 *308:7 *308:9 464.757568
5 *308:8 *308:9 8.75817
6 *308:4 *308:8 395.472
7 *308:5 *308:4 8.75817
8 *308:3 *862:A 8.75817
9 *308:5 *308:6 129.812
10 *308:2 *308:3 27.8418
11 *308:2 *308:6 2.15586
*END

*D_NET *309 0.0231485

*CONN
*I *864:Y O *C 1261.95 297.715 *L 0 *D INVX4
*I *863:A I *C 1261.3 523.165 *L 0.00241 *D CLKINVX6

*CAP
1 *864:Y 2.27185e-05
2 *863:A 1.98316e-05
3 *309:2 0.000281533
4 *309:3 0.000281533
5 *309:4 0.00822572
6 *309:5 0.00822572
7 *309:6 0.000268354
8 *309:7 0.000268354
9 *309:8 0.00230423
10 *309:9 3.26343e-05
11 *309:10 0.00229946
12 *309:11 2.39736e-05
13 *309:12 2.84922e-05
14 *309:12 *161:2 2.87e-06
15 *309:11 *161:3 2.87e-06
16 *309:2 *161:2 1.721e-05
17 *309:3 *161:3 1.721e-05
18 *309:4 *161:2 0.00039089
19 *309:5 *161:3 0.00039089
20 *309:4 *161:4 6.56e-06
21 *309:5 *161:5 6.56e-06
22 *309:7 *161:6 1.546e-05
23 *309:6 *161:7 1.54600056e-05

*RES
1 *309:11 *864:Y 8.76462
2 *309:11 *309:12 1.34909
3 *309:9 *863:A 1.19721
4 *309:3 *309:12 1.08106
5 *309:10 *309:9 8.76462
6 *309:3 *309:2 20.3436
7 *309:8 *309:10 173.568
8 *309:5 *309:2 1.08106
9 *309:7 *309:8 1.08106
10 *309:5 *309:4 585.523315
11 *309:6 *309:7 20.7278
12 *309:6 *309:4 1.08106
*END

*D_NET *310 0.0185412

*CONN
*I *943:B0 I *C 1266.665 249.795 *L 0.00039 *D OAI2BB1X1
*I *948:B I *C 1266.5649 251.59 *L 0.000212 *D NAND2BXL
*I *936:B0 I *C 1263.265 249.795 *L 0.00039 *D OAI2BB1X1
*I *865:Y O *C 1388.74 250.34 *L 0 *D BUFX3
*I *864:A I *C 1261.785 297.595 *L 0.00161 *D INVX4

*CAP
1 *943:B0 2.268e-05
2 *948:B 2.268e-05
3 *936:B0 2.268e-05
4 *865:Y 2.268e-05
5 *864:A 2.268e-05
6 *310:5 0.00229419
7 *310:6 0.00229419
8 *310:7 0.00578205
9 *310:8 0.00589815
10 *310:9 0.00012303
11 *310:10 8.082e-05
12 *310:11 6.381e-05
13 *310:12 0.00023715
14 *310:13 0.00025407
15 *310:16 1.791e-05
16 *310:17 7.497e-05
17 *310:18 7.155e-05
18 *310:19 2.601e-05
19 *310:20 2.214e-05
20 *310:21 3.654e-05
21 *310:22 2.592e-05
22 *310:23 1.791e-05
23 *310:7 *224:9 0.00038549
24 *310:8 *224:7 0.000385489987
25 *310:7 *433:13 2.45e-06
26 *310:8 *433:11 2.45e-06
27 *310:7 *433:10 0.00016559
28 *310:8 *433:7 0.000165590002

*RES
1 *310:5 *864:A 8.75799
2 *310:6 *310:5 159.99
3 *310:11 *310:6 8.75799
4 *310:11 *310:10 3.52934
5 *310:13 *310:10 2.0433
6 *310:13 *310:12 15.5552
7 *310:22 *310:12 8.75799
8 *310:21 *948:B 8.75799
9 *310:21 *310:22 1.34156
10 *310:20 *310:21 0.667341
11 *310:18 *310:20 1.07325
12 *310:19 *943:B0 8.75799
13 *310:15 *310:23 1.05261
14 *310:23 *865:Y 8.75799
15 *310:17 *310:18 7.03804
16 *310:17 *310:19 1.11453
17 *310:7 *310:23 8.75799
18 *310:8 *310:17 8.75799
19 *310:8 *310:7 450.874725
20 *310:9 *310:8 13.8146
21 *310:16 *936:B0 8.75799
22 *310:16 *310:9 8.75799
23 *310:14 *310:16 1.05261
*END

*D_NET *311 0.0497363

*CONN
*I *966:B I *C 259.7 1393.9351 *L 0.000392 *D NAND2BX1
*I *968:AN I *C 259.5 1381.775 *L 0.00021 *D NAND2BX1
*I *969:A I *C 258.3 995.315 *L 0.00039 *D NAND2X1
*I *964:B I *C 258.205 993.57 *L 0.000212 *D NOR2XL
*I *866:Y O *C 259.78 1520.485 *L 0 *D BUFX12

*CAP
1 *966:B 9.92589e-06
2 *968:AN 2.25765e-05
3 *969:A 2.25765e-05
4 *964:B 2.25765e-05
5 *866:Y 2.25765e-05
6 *311:5 3.97036e-05
7 *311:6 3.50326e-05
8 *311:7 0.00482009
9 *311:8 0.00482826
10 *311:9 6.57834e-05
11 *311:10 0.000564219
12 *311:11 0.000669316
13 *311:12 0.000701235
14 *311:13 4.35961e-05
15 *311:14 3.13347e-05
16 *311:15 2.86099e-05
17 *311:16 8.38835e-05
18 *311:17 0.000111131
19 *311:18 0.000350326
20 *311:19 0.000323078
21 *311:20 0.00914194
22 *311:21 0.01275477
23 *311:22 0.00364008
24 *311:23 0.00317239
25 *311:24 0.00370625
26 *311:25 2.27712e-05
27 *311:21 *294:2 0.0006346
28 *311:20 *294:3 0.0006346
29 *311:19 *294:4 2.186e-05
30 *311:18 *294:5 2.18599983e-05
31 *311:10 *314:11 3.988e-05
32 *311:24 *314:12 3.988e-05
33 *311:24 *314:11 6.9e-07
34 *311:23 *314:12 6.9e-07
35 *311:24 *314:12 2.049e-05
36 *311:23 *314:13 2.049e-05
37 *311:24 *314:10 0.00019509
38 *311:23 *314:5 0.00019509
39 *311:22 *314:10 0.00024787
40 *311:21 *314:5 0.00024787
41 *311:21 *314:10 1.839e-05
42 *311:20 *314:5 1.839e-05
43 *311:21 *314:5 0.00064741
44 *311:20 *314:6 0.00064741
45 *311:19 *314:5 2.104e-05
46 *311:18 *314:6 2.104e-05
47 *311:15 *314:9 2.87e-06
48 *311:13 *314:7 2.87e-06
49 *311:13 *314:9 1.44e-06
50 *311:14 *314:7 1.44e-06
51 *311:5 *314:7 1.923e-05
52 *311:6 *314:8 1.92300263e-05
53 *311:7 *303:16 0.00032747
54 *311:8 *303:15 0.00032747
55 *311:8 *303:16 3.21e-06
56 *311:9 *303:15 3.21e-06
57 *311:9 *303:16 1.21e-06
58 *311:10 *303:15 1.21e-06
59 *311:11 *303:12 4.85e-05
60 *311:12 *303:11 4.84999741e-05

*RES
1 *311:11 *866:Y 8.75675
2 *311:12 *311:11 52.5043
3 *311:12 *311:7 3.23252
4 *311:8 *311:7 387.77
5 *311:25 *966:B 0.603082
6 *311:9 *311:8 4.22157
7 *311:10 *311:25 8.75675
8 *311:10 *311:9 1.3509
9 *311:24 *968:AN 8.75675
10 *311:24 *311:10 43.0842
11 *311:23 *311:24 255.827
12 *311:22 *311:23 1.07349
13 *311:21 *311:22 293.797
14 *311:20 *311:21 790.471497
15 *311:19 *311:20 1.07349
16 *311:18 *311:19 25.8481
17 *311:17 *311:18 3.23252
18 *311:16 *311:17 5.36743
19 *311:15 *311:16 1.07349
20 *311:13 *969:A 8.75675
21 *311:13 *311:15 1.3509
22 *311:14 *311:13 2.31583
23 *311:5 *311:14 1.07349
24 *311:6 *311:5 5.23475
25 *964:B *311:6 8.75675
*END

*D_NET *312 0.0203561

*CONN
*I *867:Y O *C 260.33 1737.89 *L 0 *D INVX3
*I *866:A I *C 260.3 1520.285 *L 0.00119 *D BUFX12

*CAP
1 *867:Y 2.26296e-05
2 *866:A 2.26296e-05
3 *312:2 0.00926893
4 *312:3 0.00926893
5 *312:4 0.000105935
6 *312:5 0.000110602
7 *312:6 0.000235772
8 *312:7 0.000231104
9 *312:7 *301:2 1.072e-05
10 *312:6 *301:3 1.072e-05
11 *312:3 *301:2 0.00052938
12 *312:2 *301:3 0.00052938
13 *312:3 *301:4 4.55e-06
14 *312:2 *301:5 4.55001658e-06

*RES
1 *312:7 *867:Y 8.75695
2 *312:4 *866:A 8.75695
3 *312:6 *312:7 16.151
4 *312:4 *312:5 7.40536
5 *312:3 *312:6 1.079
6 *312:2 *312:5 1.079
7 *312:2 *312:3 744.352417
*END

*D_NET *313 0.00408048

*CONN
*I *868:Y O *C 259.53 1779.77 *L 0 *D INVX1
*I *867:A I *C 259.7 1737.265 *L 0.0012 *D INVX3

*CAP
1 *868:Y 2.26663e-05
2 *867:A 2.26663e-05
3 *313:2 0.0017726
4 *313:3 0.00176792
5 *313:4 0.000244975
6 *313:5 0.000249654

*RES
1 *313:4 *867:A 8.76043
2 *313:4 *313:5 16.7644
3 *313:3 *868:Y 8.76043
4 *313:2 *313:5 1.07574
5 *313:2 *313:3 133.26918
*END

*D_NET *314 0.0568159

*CONN
*I *966:AN I *C 260.3 1393.745 *L 0.00021 *D NAND2BX1
*I *968:B I *C 258.9 1381.585 *L 0.000392 *D NAND2BX1
*I *969:B I *C 258.5 994.935 *L 0.000392 *D NAND2X1
*I *869:Y O *C 276.3 1580.64 *L 0 *D CLKINVX20
*I *964:A I *C 257.97 993.65 *L 0.000212 *D NOR2XL

*CAP
1 *966:AN 2.26058e-05
2 *968:B 2.26058e-05
3 *969:B 3.68831e-05
4 *869:Y 2.26058e-05
5 *964:A 2.26058e-05
6 *314:5 0.01559441
7 *314:6 0.00914534
8 *314:7 0.000107794
9 *314:8 4.71152e-05
10 *314:9 9.97033e-05
11 *314:10 0.00651736
12 *314:11 0.00055515
13 *314:12 0.00086592
14 *314:13 0.000336231
15 *314:14 2.37955e-05
16 *314:15 2.85547e-05
17 *314:16 0.000149436
18 *314:17 0.000149436
19 *314:18 0.0079815
20 *314:19 0.0079953
21 *314:21 4.97327e-05
22 *314:22 8.30464e-05
23 *314:23 1.80846e-05
24 *314:24 0.000688643
25 *314:25 3.61692e-05
26 *314:26 0.000612497
27 *314:14 *332:7 2.87e-06
28 *314:15 *332:6 2.87e-06
29 *314:16 *332:7 6.54e-06
30 *314:17 *332:6 6.54e-06
31 *314:18 *332:7 1.166e-05
32 *314:19 *332:6 1.166e-05
33 *314:18 *332:6 0.00053611
34 *314:19 *332:5 0.00053610998
35 *314:11 *311:10 3.988e-05
36 *314:12 *311:24 3.988e-05
37 *314:11 *311:24 6.9e-07
38 *314:12 *311:23 6.9e-07
39 *314:12 *311:24 2.049e-05
40 *314:13 *311:23 2.049e-05
41 *314:10 *311:24 0.00019509
42 *314:5 *311:23 0.00019509
43 *314:10 *311:22 0.00024787
44 *314:5 *311:21 0.00024787
45 *314:10 *311:21 1.839e-05
46 *314:5 *311:20 1.839e-05
47 *314:5 *311:21 0.00064741
48 *314:6 *311:20 0.00064741
49 *314:5 *311:19 2.104e-05
50 *314:6 *311:18 2.104e-05
51 *314:9 *311:15 2.87e-06
52 *314:7 *311:13 2.87e-06
53 *314:9 *311:13 1.44e-06
54 *314:7 *311:14 1.44e-06
55 *314:7 *311:5 1.923e-05
56 *314:8 *311:6 1.92300263e-05
57 *314:10 *302:7 1.37e-06
58 *314:5 *302:6 1.37e-06
59 *314:10 *302:5 0.00034459
60 *314:5 *302:4 0.00034459
61 *314:5 *302:5 0.00031781
62 *314:6 *302:4 0.000317810027
63 *314:5 *300:11 2.843e-05
64 *314:6 *300:10 2.843e-05
65 *314:5 *300:9 0.0003184
66 *314:6 *300:8 0.0003184
67 *314:7 *300:2 7.83e-06
68 *314:8 *300:3 7.83e-06
69 *314:9 *300:7 8.62e-06
70 *314:7 *300:6 8.62e-06
71 *314:7 *300:7 2.99e-06
72 *314:8 *300:6 2.98998208e-06

*RES
1 *314:21 *969:B 1.80959
2 *314:8 *964:A 8.75842
3 *314:7 *314:21 8.75842
4 *314:8 *314:7 5.47703
5 *314:14 *869:Y 8.75842
6 *314:7 *314:9 10.2302
7 *314:15 *314:14 1.35116
8 *314:9 *314:6 3.23314
9 *314:16 *314:15 1.07369
10 *314:5 *314:10 551.768
11 *314:6 *314:5 790.622253
12 *314:17 *314:16 9.42194
13 *314:10 *314:13 2.14738
14 *314:18 *314:17 1.07369
15 *314:12 *968:B 8.75842
16 *314:13 *314:12 23.6453
17 *314:19 *314:18 648.316
18 *314:12 *314:11 43.3216
19 *314:25 *314:19 2.14738
20 *314:22 *314:11 8.75842
21 *314:26 *314:25 8.75842
22 *314:22 *314:24 4.93415
23 *314:24 *314:26 41.6085
24 *314:23 *966:AN 8.75842
25 *314:23 *314:24 8.75842
26 *314:20 *314:23 1.01337
*END

*D_NET *315 0.0180662

*CONN
*I *870:Y O *C 275.815 1771.91 *L 0 *D CLKINVX4
*I *869:A I *C 275.705 1580.1 *L 0.00804 *D CLKINVX20

*CAP
1 *870:Y 2.27029e-05
2 *869:A 2.27029e-05
3 *315:2 0.00845362
4 *315:3 0.00845362
5 *315:4 0.000488629
6 *315:5 0.000488629
7 *315:6 6.81088e-05
8 *315:7 6.81088e-05

*RES
1 *315:4 *870:Y 8.76184
2 *315:5 *315:4 34.9004
3 *315:7 *315:5 8.76184
4 *315:6 *315:7 3.01862
5 *315:2 *315:6 8.76184
6 *315:3 *315:2 642.299744
7 *869:A *315:3 8.76184
*END

*D_NET *316 0.0286757

*CONN
*I *970:A I *C 249.7 607.335 *L 0.000801 *D INVX2
*I *952:B I *C 249.5 521.645 *L 0.000211 *D AND2X1
*I *947:A0 I *C 250.76 461.63 *L 0.000211 *D AOI21XL
*I *961:A I *C 249.5 461.605 *L 0.000392 *D NOR2X1
*I *957:A I *C 249.37 398.57 *L 0.000212 *D NOR2XL
*I *960:A I *C 250.17 343.85 *L 0.000212 *D NOR2XL
*I *871:Y O *C 268.965 607.475 *L 0 *D CLKINVX6

*CAP
1 *970:A 2.27044e-05
2 *952:B 2.27044e-05
3 *947:A0 2.27044e-05
4 *961:A 2.27044e-05
5 *957:A 2.27044e-05
6 *960:A 2.27044e-05
7 *871:Y 2.27044e-05
8 *316:7 6.1302e-05
9 *316:8 6.1302e-05
10 *316:9 1.56311e-05
11 *316:10 1.56311e-05
12 *316:11 0.0020751
13 *316:12 0.0020751
14 *316:13 0.00233262
15 *316:14 0.00235838
16 *316:15 0.000245295
17 *316:16 0.000304676
18 *316:17 7.55359e-05
19 *316:18 1.78143e-05
20 *316:19 0.00122438
21 *316:20 0.00121818
22 *316:21 9.85024e-05
23 *316:22 9.85024e-05
24 *316:24 0.00293245
25 *316:25 9.75418e-05
26 *316:26 0.00572283
27 *316:27 0.00274479
28 *316:28 6.37471e-05
29 *316:29 8.40938e-05
30 *316:30 5.90316e-05
31 *316:31 7.70205e-05
32 *316:32 2.82932e-05
33 *316:33 3.29214e-05
34 *316:34 4.20032e-05
35 *316:35 0.00012697
36 *316:36 0.000688905
37 *316:37 9.75418e-05
38 *316:38 6.54936e-05
39 *316:39 0.000247304
40 *316:40 0.000692922
41 *316:41 1.79016e-05
42 *316:42 0.000243287
43 *316:7 *297:9 2.187e-05
44 *316:8 *297:8 2.187e-05
45 *316:9 *297:7 3.92e-06
46 *316:10 *297:6 3.92e-06
47 *316:11 *297:13 4.36e-06
48 *316:12 *297:12 4.36e-06
49 *316:11 *297:11 0.00016357
50 *316:12 *297:10 0.00016357
51 *316:13 *297:9 0.00019434
52 *316:14 *297:8 0.00019434
53 *316:15 *297:4 1.461e-05
54 *316:16 *297:3 1.461e-05
55 *316:16 *297:9 4.55e-06
56 *316:17 *297:8 4.54999656e-06
57 *316:19 *292:29 8.963e-05
58 *316:20 *292:30 8.963e-05
59 *316:21 *292:29 2.87e-06
60 *316:22 *292:30 2.87e-06
61 *316:11 *292:3 0.00017107
62 *316:12 *292:4 0.00017107
63 *316:13 *292:21 0.00019503
64 *316:14 *292:22 0.00019503
65 *316:14 *292:21 1.61e-06
66 *316:34 *292:22 1.61e-06
67 *316:33 *292:21 4.69e-06
68 *316:32 *292:22 4.69e-06
69 *316:21 *292:9 5.19e-06
70 *316:22 *292:10 5.19e-06
71 *316:15 *292:11 1.668e-05
72 *316:16 *292:12 1.668e-05
73 *316:16 *292:11 5.19e-06
74 *316:17 *292:12 5.19e-06
75 *316:30 *292:21 3.81e-06
76 *316:28 *292:22 3.81e-06
77 *316:27 *292:19 6.37e-06
78 *316:26 *292:20 6.37e-06
79 *316:27 *292:21 0.00017757
80 *316:26 *292:22 0.000177569996

*RES
1 *316:10 *960:A 8.75985
2 *316:10 *316:9 0.731467
3 *316:37 *316:9 8.75985
4 *316:25 *316:37 6.32754
5 *316:24 *316:25 8.75985
6 *316:31 *957:A 8.75985
7 *316:24 *316:26 199.275
8 *316:26 *316:31 5.57122
9 *316:26 *316:27 232.705887
10 *316:27 *316:28 1.11495
11 *316:8 *947:A0 8.75985
12 *316:28 *316:30 4.18285
13 *316:8 *316:7 4.41011
14 *316:32 *961:A 8.75985
15 *316:29 *316:30 8.75985
16 *316:38 *316:7 8.75985
17 *316:32 *316:33 2.48912
18 *316:29 *316:35 3.7319
19 *316:35 *316:38 2.35419
20 *316:33 *316:34 1.11495
21 *316:14 *316:35 8.75985
22 *316:34 *316:14 2.09853
23 *316:14 *316:13 210.719
24 *316:17 *316:13 1.11495
25 *316:16 *952:B 8.75985
26 *316:17 *316:16 5.59963
27 *316:16 *316:15 20.8255
28 *316:15 *316:12 1.11495
29 *316:12 *316:11 188.505
30 *316:22 *316:11 1.11495
31 *316:22 *316:21 7.0022
32 *316:21 *316:20 1.11495
33 *316:18 *970:A 8.75985
34 *316:20 *316:19 101.496
35 *316:19 *316:18 0.695959
36 *316:36 *316:19 8.75985
37 *316:36 *316:40 47.8223
38 *316:39 *316:40 1.02263
39 *316:39 *316:42 16.9267
40 *316:41 *316:42 8.75985
41 *316:41 *871:Y 8.75985
42 *316:23 *316:41 1.01908
*END

*D_NET *317 0.0291946

*CONN
*I *872:Y O *C 268.965 911.855 *L 0 *D CLKINVX6
*I *871:A I *C 268.1 607.335 *L 0.00241 *D CLKINVX6

*CAP
1 *872:Y 2.27463e-05
2 *871:A 2.27463e-05
3 *317:2 0.0107636
4 *317:3 0.0144726
5 *317:4 0.0037315
6 *317:5 9.31935e-05
7 *317:6 8.83351e-05

*RES
1 *317:6 *872:Y 8.76531
2 *317:5 *317:6 6.05538
3 *317:4 *317:5 1.07918
4 *317:3 *317:4 283.2
5 *317:2 *317:3 785.832336
6 *871:A *317:2 8.76531
*END

*D_NET *318 0.0201238

*CONN
*I *873:Y O *C 268.75 1128.775 *L 0 *D INVX4
*I *872:A I *C 268.1 911.715 *L 0.00241 *D CLKINVX6

*CAP
1 *873:Y 2.2645e-05
2 *872:A 2.2645e-05
3 *318:2 0.000407317
4 *318:3 0.000402611
5 *318:4 0.00963193
6 *318:5 0.00963664

*RES
1 *318:4 *872:A 8.76499
2 *318:4 *318:5 735.495911
3 *318:3 *873:Y 8.76499
4 *318:2 *318:5 1.07739
5 *318:2 *318:3 28.8313
*END

*D_NET *319 0.0202019

*CONN
*I *874:Y O *C 268.75 1345.785 *L 0 *D INVX4
*I *873:A I *C 268.585 1128.655 *L 0.00161 *D INVX4

*CAP
1 *874:Y 2.2696e-05
2 *873:A 2.2696e-05
3 *319:2 0.00882159
4 *319:3 0.00885347
5 *319:4 0.00125666
6 *319:5 0.00122477

*RES
1 *319:5 *874:Y 8.76361
2 *319:4 *319:5 91.8587
3 *319:3 *319:4 3.22599
4 *319:2 *319:3 673.308167
5 *873:A *319:2 8.76361
*END

*D_NET *320 0.0202233

*CONN
*I *875:Y O *C 268.53 1563.47 *L 0 *D INVX3
*I *874:A I *C 268.585 1345.905 *L 0.00161 *D INVX4

*CAP
1 *875:Y 2.26906e-05
2 *874:A 2.26906e-05
3 *320:2 0.00780818
4 *320:3 0.00782645
5 *320:4 0.00211846
6 *320:5 0.00210485
7 *320:6 0.000162297
8 *320:7 0.00015764

*RES
1 *320:7 *875:Y 8.76239
2 *320:6 *320:7 10.0622
3 *320:5 *320:6 1.07257
4 *320:4 *320:5 158.896
5 *320:3 *320:4 2.15424
6 *320:2 *320:3 595.696899
7 *874:A *320:2 8.76239
*END

*D_NET *321 0.020138

*CONN
*I *876:Y O *C 267.75 1780.125 *L 0 *D INVX4
*I *875:A I *C 267.9 1562.845 *L 0.0012 *D INVX3

*CAP
1 *876:Y 2.26545e-05
2 *875:A 1.97462e-05
3 *321:2 3.26042e-05
4 *321:3 0.01003152
5 *321:4 0.01003152

*RES
1 *321:4 *876:Y 8.75885
2 *321:3 *321:4 767.406372
3 *321:2 *875:A 1.2061
4 *321:2 *321:3 8.75885
*END

*D_NET *322 0.0236902

*CONN
*I *965:AN I *C 1390.74 247.78 *L 0.00021 *D NAND2BXL
*I *967:B I *C 1389.5649 248.17 *L 0.000212 *D NAND2BXL
*I *877:Y O *C 1389.55 478.975 *L 0 *D INVX4

*CAP
1 *965:AN 2.26923e-05
2 *967:B 2.26923e-05
3 *877:Y 2.26923e-05
4 *322:3 0.0112665
5 *322:4 0.01135222
6 *322:5 0.000108265
7 *322:6 4.19202e-05
8 *322:7 7.91633e-05
9 *322:8 0.00028963
10 *322:9 0.000259143
11 *322:10 7.31004e-05
12 *322:11 7.91633e-05
13 *322:12 7.31004e-05

*RES
1 *322:10 *965:AN 8.76243
2 *322:10 *322:12 4.84935
3 *322:11 *322:12 8.76243
4 *322:7 *322:11 3.73304
5 *322:6 *967:B 8.76243
6 *322:8 *322:7 8.76243
7 *322:6 *322:8 3.9491
8 *322:8 *322:9 17.3688
9 *322:5 *877:Y 8.76243
10 *322:3 *322:9 1.0803
11 *322:4 *322:5 7.67013
12 *322:3 *322:4 786.650574
*END

*D_NET *323 0.0299323

*CONN
*I *878:Y O *C 1303.965 707.705 *L 0 *D CLKINVX6
*I *877:A I *C 1389.385 478.855 *L 0.00161 *D INVX4

*CAP
1 *878:Y 2.26559e-05
2 *877:A 2.26559e-05
3 *323:2 0.00425931
4 *323:3 0.00228825
5 *323:4 0.00228825
6 *323:5 0.000413409
7 *323:6 0.00043168
8 *323:7 0.00798255
9 *323:8 0.00425931
10 *323:9 0.00796428

*RES
1 *323:5 *877:A 8.75676
2 *323:5 *323:6 29.7748
3 *323:6 *323:7 2.16376
4 *323:7 *323:9 606.000854
5 *323:4 *878:Y 8.75676
6 *323:8 *323:9 8.75676
7 *323:3 *323:4 173.526
8 *323:2 *323:8 256.461
9 *323:2 *323:3 8.75676
*END

*D_NET *324 0.0222566

*CONN
*I *879:Y O *C 1089.15 708.115 *L 0 *D INVX4
*I *878:A I *C 1303.1 707.845 *L 0.00241 *D CLKINVX6

*CAP
1 *879:Y 2.27299e-05
2 *878:A 0.000168235
3 *324:2 3.46756e-05
4 *324:3 0.01087304
5 *324:4 3.46756e-05
6 *324:5 3.45097e-05
7 *324:6 0.01087304
8 *324:7 0.000181342
9 *324:8 3.45097e-05

*RES
1 *324:7 *878:A 10.1872
2 *324:8 *324:7 8.75965
3 *324:5 *324:8 2.02146
4 *324:6 *324:5 8.75965
5 *324:3 *324:6 748.464294
6 *324:4 *879:Y 8.75965
7 *324:2 *324:3 8.75965
8 *324:2 *324:4 2.02146
*END

*D_NET *325 0.0193165

*CONN
*I *880:Y O *C 894.55 706.245 *L 0 *D INVX4
*I *879:A I *C 1088.985 707.995 *L 0.00161 *D INVX4

*CAP
1 *880:Y 2.26117e-05
2 *879:A 2.26117e-05
3 *325:2 2.82303e-05
4 *325:3 2.82303e-05
5 *325:4 0.00898094
6 *325:5 4.61826e-05
7 *325:6 4.61826e-05
8 *325:7 0.00349165
9 *325:8 0.00551122
10 *325:9 0.000179386
11 *325:10 0.000175412
12 *325:10 *34:2 1.029e-05
13 *325:9 *34:3 1.029e-05
14 *325:8 *34:2 0.00024065
15 *325:4 *34:3 0.00024065
16 *325:4 *34:3 0.00014102
17 *325:7 *34:4 0.000141019996

*RES
1 *325:2 *879:A 8.76121
2 *325:3 *325:2 1.77115
3 *325:10 *325:3 8.76121
4 *325:9 *325:10 12.7952
5 *325:8 *325:9 1.02739
6 *325:4 *325:8 413.075439
7 *325:7 *325:4 262.887
8 *325:6 *325:7 8.76121
9 *325:5 *325:6 2.69139
10 *880:Y *325:5 8.76121
*END

*D_NET *326 0.0246745

*CONN
*I *881:Y O *C 660.15 708.115 *L 0 *D INVX4
*I *880:A I *C 894.385 706.365 *L 0.00161 *D INVX4

*CAP
1 *881:Y 2.27401e-05
2 *880:A 2.27401e-05
3 *326:2 0.01221536
4 *326:4 7.92176e-05
5 *326:5 0.0116657
6 *326:6 7.92176e-05
7 *326:7 1.09973e-05
8 *326:8 0.000567571
9 *326:9 1.09973e-05

*RES
1 *326:6 *881:Y 8.76243
2 *326:4 *326:6 5.37749
3 *326:5 *326:4 8.76243
4 *326:9 *880:A 8.76243
5 *326:2 *326:8 40.2832
6 *326:5 *326:2 786.650574
7 *326:7 *326:9 0.156043
8 *326:7 *326:8 8.76243
9 *326:3 *326:7 0.780217
*END

*D_NET *327 0.0209835

*CONN
*I *882:Y O *C 445.55 708.115 *L 0 *D INVX4
*I *881:A I *C 659.985 707.995 *L 0.00161 *D INVX4

*CAP
1 *882:Y 0.000435745
2 *881:A 9.93409e-06
3 *327:2 0.0098641
4 *327:5 0.000448539
5 *327:6 1.79115e-05
6 *327:7 0.00341417
7 *327:8 0.00015142
8 *327:9 1.79115e-05
9 *327:10 0.00646785
10 *327:11 1.35465e-05
11 *327:12 0.000142389

*RES
1 *327:11 *881:A 0.600081
2 *327:11 *327:12 0.342903
3 *327:8 *327:12 8.38684
4 *327:9 *327:8 8.75832
5 *327:4 *327:9 1.02157
6 *327:10 *327:9 8.75832
7 *327:2 *327:10 468.177155
8 *327:7 *327:2 246.89
9 *882:Y *327:5 26.3678
10 *327:6 *327:7 8.75832
11 *327:6 *327:5 8.75832
12 *327:3 *327:6 1.02157
*END

*D_NET *328 0.0337471

*CONN
*I *942:A I *C 250.415 708.075 *L 0.000211 *D XNOR2X1
*I *883:Y O *C 274.165 836.615 *L 0 *D CLKINVX6
*I *882:A I *C 445.385 707.995 *L 0.00161 *D INVX4

*CAP
1 *942:A 2.26222e-05
2 *883:Y 2.26222e-05
3 *882:A 2.26222e-05
4 *328:3 0.000111797
5 *328:4 0.000107127
6 *328:5 0.000827972
7 *328:6 0.000827972
8 *328:7 1.95573e-05
9 *328:8 1.95573e-05
10 *328:9 0.00374667
11 *328:10 0.00375134
12 *328:11 0.00114965
13 *328:12 0.00114965
14 *328:14 0.00122028
15 *328:15 5.45852e-05
16 *328:16 0.00956481
17 *328:17 0.00122028
18 *328:18 0.000184334
19 *328:19 0.000184334
20 *328:20 1.12381e-05
21 *328:21 1.12381e-05
22 *328:22 0.00951723

*RES
1 *328:19 *883:Y 8.76392
2 *328:18 *328:19 12.0701
3 *328:17 *328:18 8.76392
4 *328:14 *328:17 71.2869
5 *328:9 *328:14 8.76392
6 *328:10 *328:9 294.216
7 *328:5 *328:10 1.11255
8 *328:6 *328:5 63.793
9 *328:6 *328:11 1.11255
10 *328:12 *328:11 88.5419
11 *328:12 *328:3 1.11255
12 *328:8 *942:A 8.76392
13 *328:4 *328:3 12.9412
14 *328:8 *328:7 0.7347
15 *328:15 *328:4 8.76392
16 *328:16 *328:7 8.76392
17 *328:15 *328:16 2.81285
18 *328:16 *328:22 687.847412
19 *328:21 *328:22 8.76392
20 *328:20 *882:A 8.76392
21 *328:20 *328:21 0.178427
22 *328:13 *328:20 0.755692
*END

*D_NET *329 0.0197754

*CONN
*I *884:Y O *C 273.95 1050.115 *L 0 *D INVX4
*I *883:A I *C 273.3 836.475 *L 0.00241 *D CLKINVX6

*CAP
1 *884:Y 2.26771e-05
2 *883:A 2.26771e-05
3 *329:2 0.00977724
4 *329:3 0.00977262
5 *329:4 8.77244e-05
6 *329:5 9.24985e-05

*RES
1 *329:4 *883:A 8.75599
2 *329:4 *329:5 6.03469
3 *329:3 *884:Y 8.75599
4 *329:2 *329:5 1.08169
5 *329:2 *329:3 746.206055
*END

*D_NET *330 0.0199179

*CONN
*I *885:Y O *C 273.73 1263.35 *L 0 *D INVX3
*I *884:A I *C 273.785 1049.995 *L 0.00161 *D INVX4

*CAP
1 *885:Y 2.27285e-05
2 *884:A 2.27285e-05
3 *330:2 0.000272743
4 *330:3 0.000291067
5 *330:4 0.00930947
6 *330:5 0.00929583
7 *330:6 0.000353997
8 *330:7 0.000349309

*RES
1 *330:7 *885:Y 8.75641
2 *330:6 *330:7 24.808
3 *330:5 *330:6 1.07155
4 *330:4 *330:5 709.345276
5 *330:3 *330:4 2.15393
6 *330:2 *330:3 18.9524
7 *884:A *330:2 8.75641
*END

*D_NET *331 0.00798897

*CONN
*I *886:Y O *C 273.53 1349.34 *L 0 *D INVX2
*I *885:A I *C 273.1 1263.975 *L 0.0012 *D INVX3

*CAP
1 *886:Y 2.26649e-05
2 *885:A 2.26649e-05
3 *331:2 0.00360929
4 *331:3 0.00361398
5 *331:4 0.000362528
6 *331:5 0.000357841

*RES
1 *331:5 *886:Y 8.76188
2 *331:4 *331:5 25.4781
3 *331:3 *331:4 1.07536
4 *331:2 *331:3 274.220795
5 *885:A *331:2 8.76188
*END

*D_NET *332 0.031719

*CONN
*I *887:Y O *C 273.765 1689.245 *L 0 *D CLKINVX6
*I *886:A I *C 273.1 1349.475 *L 0.000801 *D INVX2

*CAP
1 *887:Y 2.27857e-05
2 *886:A 1.41829e-05
3 *332:2 3.0691e-05
4 *332:3 1.74381e-05
5 *332:4 2.20882e-05
6 *332:5 0.00981251
7 *332:6 0.01523737
8 *332:7 0.00544765
9 *332:7 *314:14 2.87e-06
10 *332:6 *314:15 2.87e-06
11 *332:7 *314:16 6.54e-06
12 *332:6 *314:17 6.54e-06
13 *332:7 *314:18 1.166e-05
14 *332:6 *314:19 1.166e-05
15 *332:6 *314:18 0.00053611
16 *332:5 *314:19 0.00053610998

*RES
1 *332:7 *887:Y 8.76373
2 *332:6 *332:7 414.308
3 *332:5 *332:6 786.766541
4 *332:4 *332:5 1.08046
5 *332:3 *332:4 0.672286
6 *332:2 *332:3 8.76373
7 *886:A *332:2 1.29655
*END

*D_NET *333 0.00815295

*CONN
*I *888:Y O *C 272.93 1776.84 *L 0 *D INVX2
*I *887:A I *C 272.9 1689.385 *L 0.00241 *D CLKINVX6

*CAP
1 *888:Y 2.26656e-05
2 *887:A 2.26656e-05
3 *333:2 0.00403638
4 *333:3 0.0040317
5 *333:4 1.74303e-05
6 *333:5 2.21112e-05

*RES
1 *333:4 *887:A 8.75845
2 *333:4 *333:5 0.670122
3 *333:3 *888:Y 8.75845
4 *333:2 *333:5 1.07782
5 *333:2 *333:3 307.112823
*END

*D_NET *334 0.0283191

*CONN
*P *334 I *C 272 1949.29 *L 0
*I *971:PAD B *C 272 1949.29 *L 0 *D PADDI
*I *962:CK I *C 276.275 1775.33 *L 0.00021 *D DFFHQX1
*I *944:CK I *C 260.075 1779.95 *L 0.00021 *D DFFHQX1
*I *933:CK I *C 268.275 1779.95 *L 0.00021 *D DFFHQX1
*I *931:CK I *C 273.485 1776.455 *L 0.00021 *D DFFQXL

*CAP
1 *971:PAD 0.00260974
2 *962:CK 2.2707e-05
3 *944:CK 2.2707e-05
4 *933:CK 2.2707e-05
5 *931:CK 2.2707e-05
6 *334:6 0.00019403
7 *334:7 0.00019403
8 *334:8 0.000264074
9 *334:9 0.000264074
10 *334:15 1.79013e-05
11 *334:16 0.000410768
12 *334:17 1.79013e-05
13 *334:18 0.000609724
14 *334:19 0.000209769
15 *334:20 7.14849e-05
16 *334:21 0.000206285
17 *334:22 0.00146598
18 *334:23 0.00132722
19 *334:24 0.000862384
20 *334:25 0.000862384
21 *334:26 1.79013e-05
22 *334:27 1.62193e-05
23 *334:28 2.71522e-05
24 *334:29 3.38802e-05
25 *334:30 3.38802e-05
26 *334:31 0.000127231
27 *334:32 0.00787355
28 *334:33 0.00786778
29 *334:34 0.00264302

*RES
1 *971:PAD *334:34 3.86274
2 *334:33 *334:34 0.07951
3 *334:32 *334:33 28.5137
4 *334:31 *334:32 0.597048
5 *334:30 *334:31 0.597048
6 *334:29 *334:30 0.31804
7 *334:14 *334:28 0.263106
8 *334:28 *334:29 2.16556
9 *334:13 *334:27 1.01195
10 *334:27 *334:28 2.16556
11 *334:12 *334:26 1.01195
12 *334:26 *334:27 8.76056
13 *334:25 *334:26 8.76056
14 *334:9 *962:CK 8.76056
15 *334:24 *334:25 61.3644
16 *334:7 *931:CK 8.76056
17 *334:9 *334:8 17.6743
18 *334:23 *334:24 8.76056
19 *334:7 *334:6 13.2247
20 *334:22 *334:8 8.76056
21 *334:22 *334:23 94.7412109
22 *334:21 *334:6 8.76056
23 *334:21 *334:22 9.9373
24 *334:20 *334:21 4.36293
25 *334:17 *933:CK 8.76056
26 *334:11 *334:17 1.05242
27 *334:19 *334:20 1.05387
28 *334:18 *334:17 8.76056
29 *334:18 *334:19 14.5445
30 *334:16 *334:18 29.8148
31 *334:15 *944:CK 8.76056
32 *334:15 *334:16 8.76056
33 *334:10 *334:15 1.05242
34 *971:PAD *334 0.00722818
*END

*D_NET *335 0.0350023

*CONN
*P *335 I *C 334 1949.29 *L 0
*I *972:PAD B *C 334 1949.29 *L 0 *D PADDI
*I *963:A I *C 279.3 1774.885 *L 0.000392 *D NOR2X1
*I *950:B0 I *C 262.9 1769.9449 *L 0.000212 *D AOI21XL
*I *939:A I *C 270.7 1771.465 *L 0.000392 *D NOR2X1
*I *935:A I *C 274.5 1773.5551 *L 0.000392 *D NOR2X1

*CAP
1 *972:PAD 0.00258302
2 *963:A 9.85983e-06
3 *950:B0 2.2627e-05
4 *939:A 9.85983e-06
5 *935:A 9.85983e-06
6 *335:6 9.11402e-05
7 *335:7 9.11402e-05
8 *335:8 7.40751e-05
9 *335:9 7.40751e-05
10 *335:10 3.90601e-05
11 *335:11 3.90601e-05
12 *335:12 0.000354827
13 *335:13 0.000350782
14 *335:17 0.000405517
15 *335:18 0.000415503
16 *335:19 0.000223237
17 *335:20 2.67985e-05
18 *335:21 1.69387e-05
19 *335:22 0.000467204
20 *335:23 2.27534e-05
21 *335:24 1.61802e-05
22 *335:25 1.61802e-05
23 *335:26 9.70814e-05
24 *335:27 0.00025092
25 *335:28 2.37647e-05
26 *335:29 9.70814e-05
27 *335:30 4.60125e-05
28 *335:31 4.50013e-05
29 *335:32 0.00366495
30 *335:33 0.00366103
31 *335:34 0.000305781
32 *335:35 0.000305781
33 *335:36 1.79499e-05
34 *335:37 1.63066e-05
35 *335:38 2.71777e-05
36 *335:39 2.35119e-05
37 *335:40 2.35119e-05
38 *335:41 0.000267353
39 *335:42 0.000330936
40 *335:43 0.000533442
41 *335:44 0.000544692
42 *335:45 9.64493e-05
43 *335:46 7.92578e-05
44 *335:47 0.00261627
45 *335:48 0.00828415
46 *335:49 0.00828415

*RES
1 *335:7 *950:B0 8.7592
2 *335:7 *335:6 6.03751
3 *335:21 *939:A 0.602145
4 *335:25 *935:A 0.602145
5 *335:17 *335:6 8.7592
6 *335:20 *335:21 0.646302
7 *335:24 *335:25 0.578059
8 *335:17 *335:18 21.6491
9 *335:18 *335:20 1.20429
10 *335:23 *335:24 0.602145
11 *335:9 *335:18 8.7592
12 *972:PAD *335:47 3.82161
13 *335:10 *335:23 8.7592
14 *335:9 *335:8 4.05043
15 *335:46 *335:47 0.080286
16 *335:11 *335:10 2.8622
17 *335:19 *335:8 8.7592
18 *335:45 *335:46 0.196701
19 *335:31 *963:A 0.606159
20 *335:22 *335:11 8.7592
21 *335:19 *335:22 14.1504
22 *335:45 *335:49 0.116415
23 *335:30 *335:31 3.24355
24 *335:22 *335:27 16.9484
25 *335:48 *335:49 29.9667
26 *335:28 *335:30 0.598131
27 *335:26 *335:27 8.7592
28 *335:44 *335:48 0.116415
29 *335:29 *335:28 8.7592
30 *335:26 *335:29 6.68381
31 *335:43 *335:44 1.56156
32 *335:13 *335:29 8.7592
33 *335:42 *335:43 0.598131
34 *335:13 *335:12 24.6317
35 *335:41 *335:42 1.42106
36 *335:12 *335:32 1.01963
37 *335:40 *335:41 0.598131
38 *335:32 *335:33 263.081146
39 *335:39 *335:40 0.160572
40 *335:34 *335:33 8.7592
41 *335:16 *335:38 0.264944
42 *335:38 *335:39 2.16371
43 *335:34 *335:35 21.4926
44 *335:15 *335:37 1.0116
45 *335:37 *335:38 2.16371
46 *335:36 *335:35 8.7592
47 *335:36 *335:37 8.7592
48 *335:14 *335:36 1.0116
49 *972:PAD *335 0.0080286
*END

*D_NET *336 0.0705559

*CONN
*P *336 I *C 1140 80.71 *L 0
*I *1036:PAD B *C 1140 80.71 *L 0 *D PADDI
*I *908:B0 I *C 1136.5 701.195 *L 0.000211 *D AOI22XL

*CAP
1 *1036:PAD 0.00262769
2 *908:B0 2.25823e-05
3 *336:3 0.00689365
4 *336:4 0.01720853
5 *336:5 0.0103375
6 *336:6 0.000296196
7 *336:7 0.000296196
8 *336:11 0.00312713
9 *336:12 0.00169814
10 *336:13 0.00313186
11 *336:14 0.00926401
12 *336:15 0.00266078
13 *336:16 3.38735e-05
14 *336:17 0.000127091
15 *336:18 0.00926953
16 *336:19 0.000120264
17 *336:20 1.78558e-05
18 *336:21 1.62803e-05
19 *336:22 2.70463e-05
20 *336:23 3.38735e-05
21 *336:24 0.00169814
22 *336:25 0.000120264
23 *336:3 *213:7 2.637e-05
24 *336:4 *213:6 2.637e-05
25 *336:4 *213:5 1.774e-05
26 *336:5 *213:4 1.774e-05
27 *336:3 *213:3 5.92e-06
28 *336:4 *213:2 5.92e-06
29 *336:4 *213:3 0.00044889
30 *336:5 *213:2 0.000448889998
31 *336:3 *211:6 0.00026462
32 *336:4 *211:5 0.000264619999

*RES
1 *336:3 *908:B0 8.76079
2 *336:4 *336:3 527.658
3 *336:5 *336:4 789.124
4 *336:6 *336:5 1.07968
5 *1036:PAD *336:15 3.88926
6 *336:7 *336:6 22.2793
7 *336:14 *336:15 0.0801725
8 *336:7 *336:13 1.07968
9 *336:14 *336:18 33.2453
10 *336:11 *336:13 230.157
11 *336:17 *336:18 0.59663
12 *336:12 *336:11 8.76079
13 *336:16 *336:17 0.59663
14 *336:12 *336:24 122.027
15 *336:16 *336:23 0.307603
16 *336:25 *336:24 8.76079
17 *336:10 *336:22 0.254235
18 *336:22 *336:23 2.16491
19 *336:19 *336:25 8.03943
20 *336:9 *336:21 1.01763
21 *336:21 *336:22 2.16491
22 *336:20 *336:19 8.76079
23 *336:20 *336:21 8.76079
24 *336:8 *336:20 1.01763
25 *1036:PAD *336 0.00653203
*END

*D_NET *337 0.115879

*CONN
*P *337 I *C 1078 80.71 *L 0
*I *1035:PAD B *C 1078 80.71 *L 0 *D PADDI
*I *929:B0 I *C 1326.5 646.475 *L 0.000211 *D AOI22XL

*CAP
1 *1035:PAD 0.00262759
2 *929:B0 2.27002e-05
3 *337:3 0.00158789
4 *337:4 0.00158789
5 *337:5 0.0012941
6 *337:6 0.01229467
7 *337:7 0.0111066
8 *337:8 0.00920182
9 *337:9 0.00920182
10 *337:15 0.0104848
11 *337:16 0.0026608
12 *337:17 0.0104907
13 *337:18 0.000599584
14 *337:19 1.78224e-05
15 *337:20 1.63216e-05
16 *337:21 2.72027e-05
17 *337:22 1.78224e-05
18 *337:23 1.78224e-05
19 *337:24 0.000599584
20 *337:25 0.0109578
21 *337:26 0.0109578
22 *337:3 *338:27 0.00079181
23 *337:4 *338:21 0.00079181
24 *337:5 *338:25 0.00067225
25 *337:6 *338:5 0.00067225
26 *337:6 *338:25 0.00182971
27 *337:7 *338:5 0.00182971
28 *337:6 *338:5 0.00460759
29 *337:7 *338:12 0.00460759
30 *337:8 *338:23 0.00215143
31 *337:9 *338:20 0.00215143037

*RES
1 *1035:PAD *337:16 3.88916
2 *337:15 *337:16 0.0810754
3 *337:15 *337:17 30.45
4 *337:7 *337:17 0.59701
5 *337:6 *337:5 9.33842
6 *337:7 *337:6 81.7707
7 *337:25 *337:5 0.59701
8 *337:25 *337:26 161.010895
9 *337:3 *337:26 0.59701
10 *337:4 *337:3 11.38
11 *337:22 *929:B0 8.76106
12 *337:13 *337:22 1.02204
13 *337:9 *337:4 0.59701
14 *337:23 *337:22 8.76106
15 *337:14 *337:23 1.02204
16 *337:9 *337:8 154.105
17 *337:24 *337:23 8.76106
18 *337:12 *337:21 0.250597
19 *337:21 *337:8 2.16447
20 *337:18 *337:24 41.0389
21 *337:11 *337:20 1.02204
22 *337:20 *337:21 2.16447
23 *337:19 *337:18 8.76106
24 *337:19 *337:20 8.76106
25 *337:10 *337:19 1.02204
26 *1035:PAD *337 0.00737049
*END

*D_NET *338 0.115568

*CONN
*P *338 I *C 1016 80.71 *L 0
*I *1034:PAD B *C 1016 80.71 *L 0 *D PADDI
*I *925:B0 I *C 1327.1 583.205 *L 0.000211 *D AOI22XL

*CAP
1 *1034:PAD 0.00262741
2 *925:B0 2.27254e-05
3 *338:3 3.77092e-05
4 *338:4 3.77092e-05
5 *338:5 0.01636604
6 *338:9 0.0083607
7 *338:10 0.00266087
8 *338:11 0.00837793
9 *338:12 0.0123679
10 *338:13 7.69168e-05
11 *338:14 1.79805e-05
12 *338:15 1.82303e-05
13 *338:16 1.82303e-05
14 *338:17 1.79805e-05
15 *338:18 1.62324e-05
16 *338:19 2.59719e-05
17 *338:20 0.00632016
18 *338:21 0.00131208
19 *338:22 2.59719e-05
20 *338:23 0.00632016
21 *338:24 0.0125087
22 *338:25 0.00410406
23 *338:26 0.0125087
24 *338:27 0.00131208
25 *338:27 *337:3 0.00079181
26 *338:21 *337:4 0.00079181
27 *338:25 *337:5 0.00067225
28 *338:5 *337:6 0.00067225
29 *338:25 *337:6 0.00182971
30 *338:5 *337:7 0.00182971
31 *338:5 *337:6 0.00460759
32 *338:12 *337:7 0.00460759
33 *338:23 *337:8 0.00215143
34 *338:20 *337:9 0.00215143037

*RES
1 *1034:PAD *338:10 3.88903
2 *338:9 *338:10 0.0792165
3 *338:9 *338:11 30.3052
4 *338:11 *338:13 0.116349
5 *338:12 *338:13 0.596599
6 *338:5 *338:25 30.939
7 *338:12 *338:5 81.7712
8 *338:24 *338:25 0.596599
9 *338:24 *338:26 162.235306
10 *338:27 *338:26 0.596599
11 *338:21 *338:27 9.95404
12 *338:20 *338:21 0.596599
13 *338:20 *338:23 111.641
14 *338:22 *338:23 2.16607
15 *338:19 *338:22 0.158433
16 *338:8 *338:18 1.02239
17 *338:18 *338:19 2.16607
18 *338:7 *338:17 1.02239
19 *338:17 *338:18 8.76085
20 *338:3 *925:B0 8.76085
21 *338:16 *338:17 8.76085
22 *338:4 *338:3 3.08944
23 *338:15 *338:16 0.67334
24 *338:14 *338:4 8.76085
25 *338:14 *338:15 8.76085
26 *338:6 *338:14 1.02239
27 *1034:PAD *338 0.00742654
*END

*D_NET *339 0.0313289

*CONN
*P *339 I *C 954 80.71 *L 0
*I *1033:PAD B *C 954 80.71 *L 0 *D PADDI
*I *910:B0 I *C 950.3 248.045 *L 0.000211 *D AOI22XL

*CAP
1 *1033:PAD 0.00258297
2 *910:B0 2.26648e-05
3 *339:3 0.000451373
4 *339:4 0.000451373
5 *339:5 0.00663096
6 *339:6 0.00662519
7 *339:10 0.00261626
8 *339:11 0.000108568
9 *339:12 0.000816842
10 *339:13 3.95621e-05
11 *339:14 0.000816842
12 *339:15 3.48066e-05
13 *339:16 0.000383581
14 *339:17 4.02704e-05
15 *339:18 4.82638e-05
16 *339:19 1.79092e-05
17 *339:20 1.62903e-05
18 *339:21 2.71168e-05
19 *339:22 0.000383581
20 *339:23 4.82638e-05
21 *339:24 1.82128e-05
22 *339:25 1.82128e-05
23 *339:5 *340:21 0.00390043
24 *339:6 *340:19 0.00390043007
25 *339:17 *350:8 2.555e-05
26 *339:15 *350:9 2.555e-05
27 *339:13 *350:8 3.194e-05
28 *339:11 *350:9 3.194e-05
29 *339:14 *350:8 0.00060692
30 *339:12 *350:9 0.000606920015

*RES
1 *339:10 *1033:PAD 3.82311
2 *339:6 *339:10 0.0804008
3 *339:6 *339:5 30.3198
4 *339:11 *339:5 0.596391
5 *339:11 *339:13 0.184209
6 *339:12 *339:13 0.106862
7 *339:12 *339:14 6.1817
8 *339:24 *910:B0 8.76063
9 *339:14 *339:15 0.106862
10 *339:24 *339:25 1.65636
11 *339:15 *339:17 0.147062
12 *339:3 *339:25 8.76063
13 *339:16 *339:17 0.596391
14 *339:4 *339:3 33.3490334
15 *339:16 *339:22 5.80972
16 *339:23 *339:4 8.76063
17 *339:9 *339:21 0.274279
18 *339:21 *339:22 2.16472
19 *339:18 *339:23 2.77739
20 *339:8 *339:20 1.05488
21 *339:20 *339:21 2.16472
22 *339:19 *339:18 8.76063
23 *339:19 *339:20 8.76063
24 *339:7 *339:19 1.05488
25 *1033:PAD *339 0.00661526
*END

*D_NET *340 0.0336806

*CONN
*P *340 I *C 892 80.71 *L 0
*I *1032:PAD B *C 892 80.71 *L 0 *D PADDI
*I *900:B0 I *C 893.7 248.045 *L 0.000211 *D AOI22XL

*CAP
1 *1032:PAD 0.00258301
2 *900:B0 2.26869e-05
3 *340:3 0.000722807
4 *340:4 0.000722807
5 *340:5 0.00100445
6 *340:6 0.000940859
7 *340:10 2.59782e-05
8 *340:11 2.59782e-05
9 *340:12 4.50211e-05
10 *340:13 0.000307272
11 *340:14 1.78674e-05
12 *340:15 1.62217e-05
13 *340:16 2.71537e-05
14 *340:17 4.50211e-05
15 *340:18 0.000307272
16 *340:19 0.00769779
17 *340:20 0.00261628
18 *340:21 0.00770355
19 *340:21 *339:5 0.00390043
20 *340:19 *339:6 0.00390043007
21 *340:5 *350:6 0.00052383
22 *340:6 *350:7 0.000523829993

*RES
1 *1032:PAD *340:20 3.82294
2 *340:19 *340:20 0.0801505
3 *340:19 *340:21 30.4799
4 *340:10 *900:B0 8.7607
5 *340:5 *340:21 0.596676
6 *340:10 *340:11 1.3828
7 *340:6 *340:5 5.51419
8 *340:4 *340:11 8.7607
9 *340:12 *340:6 0.596676
10 *340:4 *340:3 53.058033
11 *340:12 *340:17 0.497095
12 *340:18 *340:3 8.7607
13 *340:9 *340:16 0.273645
14 *340:16 *340:17 2.16487
15 *340:13 *340:18 22.2187
16 *340:8 *340:15 1.05005
17 *340:15 *340:16 2.16487
18 *340:14 *340:13 8.7607
19 *340:14 *340:15 8.7607
20 *340:7 *340:14 1.05005
21 *1032:PAD *340 0.00647681
*END

*D_NET *341 0.0453334

*CONN
*P *341 I *C 830 80.71 *L 0
*I *1031:PAD B *C 830 80.71 *L 0 *D PADDI
*I *903:B0 I *C 826.3 248.045 *L 0.000211 *D AOI22XL

*CAP
1 *1031:PAD 0.00258298
2 *903:B0 2.26983e-05
3 *341:3 1.96862e-05
4 *341:4 1.96862e-05
5 *341:5 0.00128681
6 *341:6 0.00128283
7 *341:7 0.00703863
8 *341:8 0.00704993
9 *341:12 2.35589e-05
10 *341:13 0.000127261
11 *341:14 1.81802e-05
12 *341:15 1.78575e-05
13 *341:16 1.62438e-05
14 *341:17 2.71089e-05
15 *341:18 2.35589e-05
16 *341:19 1.81802e-05
17 *341:20 7.92828e-05
18 *341:21 0.00261633
19 *341:22 9.63872e-05
20 *341:23 5.92738e-05
21 *341:24 5.52936e-05
22 *341:7 *342:23 0.0113812
23 *341:8 *342:21 0.0113812
24 *341:7 *342:20 4.459e-05
25 *341:8 *342:19 4.45508327e-05

*RES
1 *341:21 *1031:PAD 3.82284
2 *341:20 *341:21 0.080067
3 *341:3 *903:B0 8.76079
4 *341:20 *341:22 0.196528
5 *341:4 *341:3 0.756998
6 *341:8 *341:22 0.116461
7 *341:24 *341:4 8.76079
8 *341:8 *341:7 31.3281
9 *341:23 *341:24 4.90156
10 *341:13 *341:7 0.596863
11 *341:23 *341:5 1.05834
12 *341:12 *341:13 0.596863
13 *341:6 *341:5 95.4049835
14 *341:12 *341:18 0.165957
15 *341:19 *341:6 8.76079
16 *341:11 *341:17 0.273684
17 *341:17 *341:18 2.16472
18 *341:14 *341:19 0.6944
19 *341:10 *341:16 1.04961
20 *341:16 *341:17 2.16472
21 *341:15 *341:14 8.76079
22 *341:15 *341:16 8.76079
23 *341:9 *341:15 1.04961
24 *1031:PAD *341 0.00582306
*END

*D_NET *342 0.0572149

*CONN
*P *342 I *C 768 80.71 *L 0
*I *1030:PAD B *C 768 80.71 *L 0 *D PADDI
*I *907:B0 I *C 766.1 336.965 *L 0.000211 *D AOI22XL

*CAP
1 *1030:PAD 0.00258295
2 *907:B0 2.27126e-05
3 *342:3 1.78456e-05
4 *342:4 1.78456e-05
5 *342:5 0.00163693
6 *342:6 0.00157325
7 *342:11 0.00476955
8 *342:12 0.000370398
9 *342:13 1.78456e-05
10 *342:14 1.62233e-05
11 *342:15 2.7174e-05
12 *342:16 0.00476955
13 *342:17 1.78456e-05
14 *342:18 0.000370398
15 *342:19 0.000185453
16 *342:20 0.000174096
17 *342:21 0.00662782
18 *342:22 0.00261631
19 *342:23 0.00664496
20 *342:23 *341:7 0.0113812
21 *342:21 *341:8 0.0113812
22 *342:20 *341:7 4.459e-05
23 *342:19 *341:8 4.45508327e-05
24 *342:5 *344:19 0.00095207
25 *342:6 *344:18 0.000952070003

*RES
1 *1030:PAD *342:22 3.82309
2 *342:21 *342:22 0.0802271
3 *342:21 *342:23 30.221
4 *342:19 *342:23 0.115527
5 *342:19 *342:20 0.431087
6 *342:5 *342:20 0.59689
7 *342:3 *907:B0 8.7608
8 *342:6 *342:5 11.7752
9 *342:4 *342:3 0.674977
10 *342:11 *342:6 0.59689
11 *342:17 *342:4 8.7608
12 *342:10 *342:17 1.02156
13 *342:11 *342:16 70.103508
14 *342:18 *342:17 8.7608
15 *342:9 *342:15 0.250309
16 *342:15 *342:16 2.16506
17 *342:12 *342:18 25.5582
18 *342:8 *342:14 1.02156
19 *342:14 *342:15 2.16506
20 *342:13 *342:12 8.7608
21 *342:13 *342:14 8.7608
22 *342:7 *342:13 1.02156
23 *1030:PAD *342 0.00641817
*END

*D_NET *343 0.064712

*CONN
*P *343 I *C 706 80.71 *L 0
*I *1029:PAD B *C 706 80.71 *L 0 *D PADDI
*I *930:B0 I *C 951.5 333.545 *L 0.000211 *D AOI22XL

*CAP
1 *1029:PAD 0.00262748
2 *930:B0 2.27276e-05
3 *343:7 0.00833121
4 *343:8 0.00266076
5 *343:9 0.00973497
6 *343:10 0.008337
7 *343:11 0.000365869
8 *343:12 0.00967139
9 *343:13 0.00425837
10 *343:14 1.78255e-05
11 *343:15 1.61915e-05
12 *343:16 2.71839e-05
13 *343:17 0.000365869
14 *343:18 0.00138326
15 *343:19 0.00425837
16 *343:20 1.78255e-05
17 *343:21 0.00138326
18 *343:12 *350:5 0.00480366
19 *343:9 *350:3 0.00480366
20 *343:12 *350:3 0.0002722
21 *343:9 *350:4 0.0002722
22 *343:12 *350:6 0.00054037
23 *343:9 *350:7 0.000540370262

*RES
1 *1029:PAD *343:8 3.89043
2 *343:7 *343:8 0.0792065
3 *343:7 *343:10 30.1963
4 *343:9 *343:10 0.596378
5 *343:20 *930:B0 8.7593
6 *343:6 *343:20 0.214323
7 *343:9 *343:12 68.6487
8 *343:21 *343:20 8.7593
9 *343:11 *343:12 0.596378
10 *343:18 *343:21 99.1199
11 *343:11 *343:17 5.46524
12 *343:19 *343:18 8.7593
13 *343:5 *343:16 0.0559104
14 *343:16 *343:17 2.16653
15 *343:13 *343:19 305.34552
16 *343:4 *343:15 1.04832
17 *343:15 *343:16 2.16653
18 *343:14 *343:13 8.7593
19 *343:14 *343:15 8.7593
20 *343:3 *343:14 0.223642
21 *1029:PAD *343 0.0046592
*END

*D_NET *344 0.117061

*CONN
*P *344 I *C 644 80.71 *L 0
*I *1028:PAD B *C 644 80.71 *L 0 *D PADDI
*I *901:B0 I *C 892.7 708.035 *L 0.000211 *D AOI22XL

*CAP
1 *1028:PAD 0.00267206
2 *901:B0 2.26501e-05
3 *344:3 0.01427284
4 *344:9 0.00830889
5 *344:10 0.00830889
6 *344:11 7.92754e-05
7 *344:12 0.00270538
8 *344:13 9.64808e-05
9 *344:14 0.000113033
10 *344:15 0.000108677
11 *344:16 0.000101708
12 *344:17 3.96377e-05
13 *344:18 0.0103761
14 *344:19 0.0108248
15 *344:20 0.0121803
16 *344:21 0.00178914
17 *344:22 0.00028966
18 *344:23 1.78587e-05
19 *344:24 1.63342e-05
20 *344:25 2.72237e-05
21 *344:26 0.00211887
22 *344:27 1.78587e-05
23 *344:28 1.78587e-05
24 *344:29 0.00028966
25 *344:30 0.000480444
26 *344:31 0.00100205
27 *344:32 0.000127189
28 *344:33 0.00100205
29 *344:34 0.0110016
30 *344:35 0.000132634
31 *344:36 0.0110016
32 *344:37 0.00178914
33 *344:19 *342:5 0.00095207
34 *344:18 *342:6 0.000952070003
35 *344:30 *350:5 0.00028518
36 *344:19 *350:3 0.00028518
37 *344:19 *350:5 0.00452015
38 *344:18 *350:3 0.00452015
39 *344:19 *350:3 0.00208876
40 *344:18 *350:4 0.00208876
41 *344:17 *350:3 1.806e-05
42 *344:15 *350:4 1.80601563e-05

*RES
1 *1028:PAD *344:12 3.95509
2 *344:11 *344:12 0.0811023
3 *344:11 *344:13 0.197349
4 *344:9 *344:13 0.116247
5 *344:9 *344:10 30.0376
6 *344:10 *344:14 0.116247
7 *344:14 *344:16 0.216273
8 *344:15 *344:16 0.597453
9 *344:15 *344:17 0.183832
10 *344:17 *344:18 0.108136
11 *344:19 *344:30 3.52524
12 *344:18 *344:19 81.77
13 *344:30 *344:31 0.108136
14 *344:31 *344:33 4.34167
15 *344:32 *344:33 0.108136
16 *344:32 *344:35 0.367664
17 *344:34 *344:35 0.597453
18 *344:34 *344:36 160.837
19 *344:37 *344:36 0.597453
20 *344:21 *344:37 10.4784
21 *344:27 *901:B0 8.76175
22 *344:7 *344:27 1.02189
23 *344:20 *344:21 0.597453
24 *344:28 *344:27 8.76175
25 *344:8 *344:28 1.02189
26 *344:3 *344:26 30.6621
27 *344:20 *344:3 177.170593
28 *344:29 *344:28 8.76175
29 *344:6 *344:25 0.251417
30 *344:25 *344:26 2.16543
31 *344:22 *344:29 19.5051
32 *344:5 *344:24 1.02189
33 *344:24 *344:25 2.16543
34 *344:23 *344:22 8.76175
35 *344:23 *344:24 8.76175
36 *344:4 *344:23 1.02189
37 *1028:PAD *344 0.00540682
*END

*D_NET *345 0.0699655

*CONN
*P *345 I *C 582 80.71 *L 0
*I *1027:PAD B *C 582 80.71 *L 0 *D PADDI
*I *909:B0 I *C 584.7 641.345 *L 0.000211 *D AOI22XL

*CAP
1 *1027:PAD 0.00258311
2 *909:B0 2.26085e-05
3 *345:3 3.21614e-05
4 *345:4 3.21614e-05
5 *345:5 0.02086832
6 *345:9 1.81505e-05
7 *345:10 1.62399e-05
8 *345:11 2.61113e-05
9 *345:12 0.0121803
10 *345:13 0.0018141
11 *345:14 1.78321e-05
12 *345:15 1.78321e-05
13 *345:16 1.81505e-05
14 *345:17 2.61113e-05
15 *345:18 0.00871416
16 *345:19 0.00187778
17 *345:20 7.67417e-05
18 *345:21 7.92891e-05
19 *345:22 0.00261622
20 *345:23 9.64843e-05
21 *345:24 0.00110686
22 *345:25 0.00110686
23 *345:26 0.00830912
24 *345:27 0.00830912

*RES
1 *1027:PAD *345:22 3.82229
2 *345:21 *345:22 0.0811528
3 *345:21 *345:23 0.197472
4 *345:23 *345:26 0.116319
5 *345:26 *345:27 30.0373
6 *345:24 *345:27 0.116319
7 *345:24 *345:25 3.46252
8 *345:20 *345:25 0.113614
9 *345:3 *909:B0 8.76179
10 *345:19 *345:20 0.597825
11 *345:4 *345:3 3.14873
12 *345:13 *345:19 10.0873
13 *345:14 *345:4 8.76179
14 *345:7 *345:14 1.02252
15 *345:12 *345:13 0.597825
16 *345:15 *345:14 8.76179
17 *345:8 *345:15 1.02252
18 *345:5 *345:18 126.78
19 *345:12 *345:5 177.280899
20 *345:16 *345:15 8.76179
21 *345:17 *345:18 2.16407
22 *345:9 *345:16 0.708734
23 *345:11 *345:17 0.1596
24 *345:10 *345:9 8.76179
25 *345:10 *345:11 2.16407
26 *345:6 *345:10 1.02252
27 *1027:PAD *345 0.00541018
*END

*D_NET *346 0.0939307

*CONN
*P *346 I *C 520 80.71 *L 0
*I *1026:PAD B *C 520 80.71 *L 0 *D PADDI
*I *904:B0 I *C 769.1 583.205 *L 0.000211 *D AOI22XL

*CAP
1 *1026:PAD 0.000217757
2 *904:B0 2.27533e-05
3 *346:3 8.20803e-05
4 *346:4 8.20803e-05
5 *346:8 0.00262758
6 *346:9 0.00833107
7 *346:10 0.0024432
8 *346:11 0.00834826
9 *346:12 0.0096066
10 *346:13 7.2979e-05
11 *346:14 0.01104545
12 *346:15 0.00954306
13 *346:16 0.01104545
14 *346:17 0.00220589
15 *346:18 0.00765926
16 *346:19 0.00220589
17 *346:20 1.87082e-05
18 *346:21 1.83712e-05
19 *346:22 1.61801e-05
20 *346:23 2.71354e-05
21 *346:24 0.00765926
22 *346:25 1.87082e-05
23 *346:26 1.78655e-05
24 *346:27 1.83712e-05
25 *346:15 *350:3 0.00529841
26 *346:12 *350:4 0.00529840992

*RES
1 *346:8 *346:10 3.56592
2 *1026:PAD *346:8 0.321476
3 *346:9 *346:10 0.0791327
4 *346:9 *346:11 30.199
5 *346:11 *346:13 0.116226
6 *346:12 *346:13 0.595968
7 *346:12 *346:15 67.6708
8 *346:3 *904:B0 8.76147
9 *346:14 *346:15 0.595968
10 *346:4 *346:3 6.80294
11 *346:14 *346:16 162.063705
12 *346:20 *346:4 8.76147
13 *346:17 *346:16 0.595968
14 *346:20 *346:25 0.707248
15 *346:17 *346:19 12.5747
16 *346:26 *346:25 8.76147
17 *346:7 *346:26 0.215142
18 *346:18 *346:19 0.595968
19 *346:27 *346:26 8.76147
20 *346:18 *346:24 111.34
21 *346:21 *346:27 0.707248
22 *346:6 *346:23 0.249762
23 *346:23 *346:24 2.16378
24 *346:22 *346:21 8.76147
25 *346:22 *346:23 2.16378
26 *346:5 *346:22 0.215142
27 *1026:PAD *346 0.00741869
*END

*D_NET *347 0.0935581

*CONN
*P *347 I *C 458 80.71 *L 0
*I *1025:PAD B *C 458 80.71 *L 0 *D PADDI
*I *910:A0 I *C 949.58 247.925 *L 0.000211 *D AOI22XL

*CAP
1 *1025:PAD 0.00262742
2 *910:A0 0.000425802
3 *347:3 0.0119828
4 *347:4 0.02298595
5 *347:5 0.0127193
6 *347:6 0.00177967
7 *347:11 0.00889274
8 *347:12 0.00266074
9 *347:13 0.0088987
10 *347:14 0.00043878
11 *347:15 3.43728e-05
12 *347:16 3.43728e-05
13 *347:17 1.78879e-05
14 *347:18 1.82386e-05
15 *347:19 1.82386e-05
16 *347:20 1.78879e-05
17 *347:21 1.61342e-05
18 *347:22 2.70072e-05
19 *347:23 5.47159e-05
20 *347:24 5.47159e-05
21 *347:3 *349:3 0.00234098
22 *347:4 *349:4 0.00234098
23 *347:4 *349:4 0.0065449
24 *347:5 *349:5 0.0065449
25 *347:5 *349:5 0.00104043
26 *347:6 *349:12 0.00104042949

*RES
1 *1025:PAD *347:12 3.88918
2 *347:11 *347:12 0.0798548
3 *347:11 *347:13 31.8833
4 *347:6 *347:13 0.596415
5 *347:4 *347:3 71.6198
6 *347:5 *347:4 81.771286
7 *347:6 *347:5 12.8579
8 *347:24 *347:3 0.596415
9 *347:23 *347:24 0.663793
10 *347:10 *347:22 0.274501
11 *347:22 *347:23 2.16481
12 *347:9 *347:21 1.05433
13 *347:21 *347:22 2.16481
14 *347:14 *910:A0 26.9709
15 *347:8 *347:20 1.05433
16 *347:20 *347:21 8.76032
17 *347:15 *347:14 8.76032
18 *347:19 *347:20 8.76032
19 *347:15 *347:16 2.08246
20 *347:18 *347:19 0.693738
21 *347:17 *347:16 8.76032
22 *347:17 *347:18 8.76032
23 *347:7 *347:17 1.05433
24 *1025:PAD *347 0.00623865
*END

*D_NET *348 0.123632

*CONN
*P *348 I *C 396 80.71 *L 0
*I *1024:PAD B *C 396 80.71 *L 0 *D PADDI
*I *900:A0 I *C 892.98 247.925 *L 0.000211 *D AOI22XL

*CAP
1 *1024:PAD 0.00258308
2 *900:A0 2.25455e-05
3 *348:3 0.0187096
4 *348:4 0.0191886
5 *348:10 0.00657715
6 *348:11 7.78846e-05
7 *348:12 0.00659443
8 *348:13 0.00261499
9 *348:14 7.64206e-05
10 *348:15 0.000501272
11 *348:16 0.00776972
12 *348:17 0.000489853
13 *348:18 1.7568e-05
14 *348:19 1.78608e-05
15 *348:20 1.78608e-05
16 *348:21 1.78608e-05
17 *348:22 1.69824e-05
18 *348:23 1.7568e-05
19 *348:24 1.69824e-05
20 *348:25 2.72303e-05
21 *348:26 2.63519e-05
22 *348:27 0.0081855
23 *348:27 *349:3 0.00234098
24 *348:4 *349:4 0.00234098
25 *348:4 *349:4 0.0065449
26 *348:3 *349:5 0.0065449
27 *348:17 *349:6 9.24e-06
28 *348:15 *349:7 9.24e-06
29 *348:12 *349:8 0.0113404
30 *348:10 *349:9 0.0113404
31 *348:17 *349:10 7.923e-05
32 *348:15 *349:11 7.923e-05
33 *348:3 *349:5 0.00471757
34 *348:16 *349:12 0.00471754933

*RES
1 *348:13 *1024:PAD 3.82305
2 *348:13 *348:14 0.0623865
3 *348:11 *348:14 0.0661297
4 *348:10 *348:11 0.0798548
5 *348:10 *348:12 29.8944
6 *348:12 *348:15 0.116039
7 *348:15 *348:17 1.61332
8 *348:16 *348:17 0.596415
9 *348:4 *348:27 53.9569
10 *348:3 *348:4 81.771286
11 *348:16 *348:3 58.3027
12 *348:9 *348:26 0.273253
13 *348:26 *348:27 0.596415
14 *348:8 *348:25 0.273253
15 *348:25 *348:26 2.16481
16 *348:24 *348:25 2.16481
17 *348:22 *348:24 0.691243
18 *348:23 *900:A0 8.76032
19 *348:7 *348:21 1.05059
20 *348:21 *348:22 8.76032
21 *348:18 *348:23 0.691243
22 *348:6 *348:20 1.05433
23 *348:20 *348:21 8.76032
24 *348:19 *348:18 8.76032
25 *348:19 *348:20 8.76032
26 *348:5 *348:19 1.05433
27 *1024:PAD *348 0.00623865
*END

*D_NET *349 0.125231

*CONN
*P *349 I *C 334 80.71 *L 0
*I *1023:PAD B *C 334 80.71 *L 0 *D PADDI
*I *903:A0 I *C 825.58 247.925 *L 0.000211 *D AOI22XL

*CAP
1 *1023:PAD 0.00258293
2 *903:A0 2.26774e-05
3 *349:3 0.00277512
4 *349:4 0.0105283
5 *349:5 0.01501176
6 *349:6 6.61997e-05
7 *349:7 7.74239e-05
8 *349:8 0.00664609
9 *349:9 0.00662891
10 *349:10 0.000406819
11 *349:11 0.000406819
12 *349:12 0.00732228
13 *349:18 0.00261638
14 *349:19 1.78671e-05
15 *349:20 1.78671e-05
16 *349:21 1.83252e-05
17 *349:22 1.83252e-05
18 *349:23 1.78671e-05
19 *349:24 1.62636e-05
20 *349:25 2.72587e-05
21 *349:26 4.42095e-05
22 *349:27 4.42095e-05
23 *349:3 *347:3 0.00234098
24 *349:4 *347:4 0.00234098
25 *349:4 *347:4 0.0065449
26 *349:5 *347:5 0.0065449
27 *349:5 *347:5 0.00104043
28 *349:12 *347:6 0.00104042949
29 *349:3 *348:27 0.00234098
30 *349:4 *348:4 0.00234098
31 *349:4 *348:4 0.0065449
32 *349:5 *348:3 0.0065449
33 *349:6 *348:17 9.24e-06
34 *349:7 *348:15 9.24e-06
35 *349:8 *348:12 0.0113404
36 *349:9 *348:10 0.0113404
37 *349:10 *348:17 7.923e-05
38 *349:11 *348:15 7.923e-05
39 *349:5 *348:3 0.00471757
40 *349:12 *348:16 0.00471754933

*RES
1 *1023:PAD *349:18 3.82305
2 *349:9 *349:18 0.0798548
3 *349:9 *349:8 30.3136
4 *349:11 *349:8 0.116039
5 *349:11 *349:10 1.25397
6 *349:10 *349:7 0.116039
7 *349:7 *349:6 0.23083
8 *349:12 *349:6 0.596415
9 *349:4 *349:3 29.1557
10 *349:5 *349:4 81.771286
11 *349:12 *349:5 58.6708
12 *349:27 *349:3 0.596415
13 *349:26 *349:27 0.497845
14 *349:17 *349:25 0.274501
15 *349:25 *349:26 2.16481
16 *349:16 *349:24 1.05433
17 *349:24 *349:25 2.16481
18 *349:15 *349:23 1.05433
19 *349:23 *349:24 8.76032
20 *349:22 *349:23 8.76032
21 *349:21 *349:22 0.693738
22 *349:14 *349:20 1.05433
23 *349:20 *349:21 8.76032
24 *349:19 *903:A0 8.76032
25 *349:19 *349:20 8.76032
26 *349:13 *349:19 1.05433
27 *1023:PAD *349 0.00623865
*END

*D_NET *350 0.14054

*CONN
*P *350 I *C 272 80.71 *L 0
*I *1022:PAD B *C 272 80.71 *L 0 *D PADDI
*I *902:A0 I *C 1012.18 335.375 *L 0.000211 *D AOI22XL

*CAP
1 *1022:PAD 0.00260983
2 *902:A0 2.2733e-05
3 *350:3 0.0159806
4 *350:4 0.02442311
5 *350:5 0.00551966
6 *350:6 0.000493791
7 *350:7 0.000493791
8 *350:8 0.00353927
9 *350:9 0.00261989
10 *350:10 0.00136286
11 *350:11 0.00135914
12 *350:12 8.01246e-05
13 *350:13 8.38514e-05
14 *350:18 0.0083706
15 *350:19 0.002643
16 *350:20 0.0140311
17 *350:21 0.00837619
18 *350:22 0.000990937
19 *350:23 0.000956278
20 *350:24 0.00374163
21 *350:25 1.78883e-05
22 *350:26 1.63976e-05
23 *350:27 2.72051e-05
24 *350:28 0.000990937
25 *350:29 0.00374163
26 *350:30 1.78883e-05
27 *350:5 *344:30 0.00028518
28 *350:3 *344:19 0.00028518
29 *350:5 *344:19 0.00452015
30 *350:3 *344:18 0.00452015
31 *350:3 *344:19 0.00208876
32 *350:4 *344:18 0.00208876
33 *350:3 *344:17 1.806e-05
34 *350:4 *344:15 1.80601563e-05
35 *350:6 *340:5 0.00052383
36 *350:7 *340:6 0.000523829993
37 *350:8 *339:17 2.555e-05
38 *350:9 *339:15 2.555e-05
39 *350:8 *339:13 3.194e-05
40 *350:9 *339:11 3.194e-05
41 *350:8 *339:14 0.00060692
42 *350:9 *339:12 0.000606920015
43 *350:5 *343:12 0.00480366
44 *350:3 *343:9 0.00480366
45 *350:3 *343:12 0.0002722
46 *350:4 *343:9 0.0002722
47 *350:6 *343:12 0.00054037
48 *350:7 *343:9 0.000540370262
49 *350:3 *346:15 0.00529841
50 *350:4 *346:12 0.00529840992

*RES
1 *1022:PAD *350:19 3.8627
2 *350:18 *350:19 0.0820107
3 *350:18 *350:21 30.344
4 *350:20 *350:21 0.598678
5 *350:3 *350:5 59.4783
6 *350:4 *350:3 81.7729
7 *350:20 *350:4 81.3013
8 *350:7 *350:5 0.106614
9 *350:30 *902:A0 8.75875
10 *350:17 *350:30 1.02103
11 *350:7 *350:6 5.56853
12 *350:12 *350:30 8.75875
13 *350:6 *350:9 0.106614
14 *350:13 *350:12 4.97805
15 *350:8 *350:23 5.44961
16 *350:9 *350:8 16.7753
17 *350:13 *350:10 1.02513
18 *350:22 *350:23 0.598678
19 *350:11 *350:10 97.3918
20 *350:22 *350:28 14.6512
21 *350:29 *350:11 8.75875
22 *350:16 *350:27 0.254233
23 *350:27 *350:28 2.16508
24 *350:24 *350:29 268.732727
25 *350:15 *350:26 1.01693
26 *350:26 *350:27 2.16508
27 *350:25 *350:24 8.75875
28 *350:25 *350:26 8.75875
29 *350:14 *350:25 1.01693
30 *1022:PAD *350 0.00820107
*END

*D_NET *351 0.241778

*CONN
*P *351 I *C 1949.29 1574 *L 0
*I *1021:PAD B *C 1949.29 1574 *L 0 *D PADDI
*I *897:B0 I *C 1074.3 766.175 *L 0.000211 *D AOI22XL

*CAP
1 *1021:PAD 0.00194718
2 *897:B0 2.27205e-05
3 *351:3 0.00601176
4 *351:4 0.0158541
5 *351:5 0.0155101
6 *351:6 0.0169467
7 *351:7 0.0113216
8 *351:8 5.26158e-05
9 *351:9 5.81963e-05
10 *351:10 0.00446437
11 *351:11 0.00770822
12 *351:12 0.00334987
13 *351:18 1.79372e-05
14 *351:19 1.79372e-05
15 *351:20 0.000157449
16 *351:21 0.000157449
17 *351:22 1.79372e-05
18 *351:23 1.63428e-05
19 *351:24 2.71051e-05
20 *351:25 0.0121818
21 *351:26 0.025189
22 *351:27 0.02612256
23 *351:28 0.019758
24 *351:29 0.00666906
25 *351:30 0.000288988
26 *351:31 0.000273044
27 *351:32 5.46088e-05
28 *351:33 7.0553e-05
29 *351:34 0.00198465
30 *351:8 *352:34 4.759e-05
31 *351:9 *352:31 4.759e-05
32 *351:10 *352:29 0.00329197
33 *351:11 *352:27 0.00329197
34 *351:3 *352:22 0.0009316
35 *351:4 *352:19 0.0009316
36 *351:3 *352:19 0.00353624
37 *351:4 *352:18 0.00353624
38 *351:4 *352:19 0.00305915
39 *351:5 *352:18 0.00305915
40 *351:11 *352:28 2.382e-05
41 *351:12 *352:24 2.382e-05
42 *351:11 *352:27 0.00244488
43 *351:12 *352:26 0.00244488032
44 *351:3 *386:33 0.00303538
45 *351:4 *386:16 0.00303538
46 *351:4 *386:16 0.00633401
47 *351:5 *386:15 0.00633401
48 *351:5 *386:15 0.00346603
49 *351:6 *386:14 0.00346603
50 *351:6 *386:15 0.00315048
51 *351:7 *386:14 0.00315048
52 *351:6 *386:14 0.00344194
53 *351:7 *386:13 0.0034419398

*RES
1 *351:34 *1021:PAD 3.81992
2 *351:8 *351:34 0.0811023
3 *351:9 *351:8 0.124357
4 *351:10 *351:9 0.597453
5 *351:11 *351:10 34.0413
6 *351:12 *351:11 26.1257
7 *351:32 *351:12 0.597453
8 *351:32 *351:33 0.638004
9 *351:30 *351:33 0.556902
10 *351:30 *351:31 3.99293
11 *351:3 *351:31 0.597453
12 *351:4 *351:3 56.5445
13 *351:5 *351:4 83.0271
14 *351:6 *351:5 43.4924
15 *351:7 *351:6 83.0271
16 *351:29 *351:7 0.597453
17 *351:28 *351:29 89.7126
18 *351:27 *351:28 177.170593
19 *351:26 *351:27 177.170593
20 *351:25 *351:26 177.170593
21 *351:17 *351:24 0.251417
22 *351:24 *351:25 2.16543
23 *351:16 *351:23 1.02189
24 *351:23 *351:24 2.16543
25 *351:15 *351:22 1.02189
26 *351:22 *351:23 8.76175
27 *351:21 *351:22 8.76175
28 *351:20 *351:21 10.7623
29 *351:14 *351:19 1.02189
30 *351:19 *351:20 8.76175
31 *351:18 *897:B0 8.76175
32 *351:18 *351:19 8.76175
33 *351:13 *351:18 1.02189
34 *1021:PAD *351 0.00540682
*END

*D_NET *352 0.0899793

*CONN
*P *352 I *C 1949.29 1512 *L 0
*I *1020:PAD B *C 1949.29 1512 *L 0 *D PADDI
*I *919:A0 I *C 1392.38 1509.905 *L 0.000211 *D AOI22XL

*CAP
1 *1020:PAD 0.00194413
2 *919:A0 2.26994e-05
3 *352:3 0.00176292
4 *352:4 0.00176292
5 *352:8 0.00101639
6 *352:9 0.00680767
7 *352:10 0.00580929
8 *352:11 7.39688e-05
9 *352:12 7.39688e-05
10 *352:13 1.78073e-05
11 *352:14 1.62418e-05
12 *352:15 2.72002e-05
13 *352:16 2.34822e-05
14 *352:17 2.34822e-05
15 *352:18 0.0111057
16 *352:19 0.01282419
17 *352:20 0.000170441
18 *352:21 0.000169072
19 *352:22 0.00176077
20 *352:23 0.0001587
21 *352:24 6.00752e-05
22 *352:25 0.00016007
23 *352:26 0.00324249
24 *352:27 0.00757143
25 *352:28 5.4596e-05
26 *352:29 0.00436044
27 *352:30 5.36176e-05
28 *352:31 6.24234e-05
29 *352:32 0.0019815
30 *352:33 0.000122694
31 *352:34 6.82939e-05
32 *352:34 *351:8 4.759e-05
33 *352:31 *351:9 4.759e-05
34 *352:29 *351:10 0.00329197
35 *352:27 *351:11 0.00329197
36 *352:22 *351:3 0.0009316
37 *352:19 *351:4 0.0009316
38 *352:19 *351:3 0.00353624
39 *352:18 *351:4 0.00353624
40 *352:19 *351:4 0.00305915
41 *352:18 *351:5 0.00305915
42 *352:28 *351:11 2.382e-05
43 *352:24 *351:12 2.382e-05
44 *352:27 *351:11 0.00244488
45 *352:26 *351:12 0.00244488032

*RES
1 *1020:PAD *352:32 3.81708
2 *352:31 *352:32 0.0769831
3 *352:31 *352:34 0.205288
4 *352:33 *352:34 0.596619
5 *352:30 *352:33 0.218119
6 *352:29 *352:30 0.109059
7 *352:27 *352:29 33.5326
8 *352:26 *352:27 24.904
9 *352:26 *352:28 0.102644
10 *352:24 *352:28 0.288687
11 *352:23 *352:24 0.596619
12 *352:23 *352:25 2.23893
13 *352:20 *352:25 0.275856
14 *352:20 *352:21 2.39931
15 *352:4 *919:A0 8.76325
16 *352:22 *352:21 0.596619
17 *352:4 *352:3 133.181
18 *352:19 *352:22 12.8626
19 *352:18 *352:19 82.1795
20 *352:8 *352:3 8.76325
21 *352:17 *352:18 0.596619
22 *352:9 *352:10 420.430573
23 *352:8 *352:9 73.0378
24 *352:16 *352:17 0.153966
25 *352:11 *352:10 8.76325
26 *352:7 *352:15 0.250195
27 *352:15 *352:16 2.16194
28 *352:11 *352:12 4.7088
29 *352:6 *352:14 1.02003
30 *352:14 *352:15 2.16194
31 *352:13 *352:12 8.76325
32 *352:13 *352:14 8.76325
33 *352:5 *352:13 1.02003
34 *1020:PAD *352 0.00641526
*END

*D_NET *353 0.0353824

*CONN
*P *353 I *C 1949.29 1450 *L 0
*I *1019:PAD B *C 1949.29 1450 *L 0 *D PADDI
*I *920:B0 I *C 1781.7 1446.755 *L 0.000211 *D AOI22XL

*CAP
1 *1019:PAD 0.00194724
2 *353:3 0.00116505
3 *353:4 0.00116505
4 *353:5 0.000504437
5 *353:6 0.000504437
6 *353:11 0.00362723
7 *353:12 0.00800831
8 *353:13 1.24643e-05
9 *353:16 1.24643e-05
10 *353:17 9.77592e-06
11 *353:19 9.77592e-06
12 *353:20 0.00438108
13 *353:22 0.00194724
14 *353:20 *354:18 0.00329558
15 *353:12 *354:19 0.00329558
16 *353:12 *354:19 0.00274834
17 *353:11 *354:20 0.00274834025

*RES
1 *353:22 *1019:PAD 3.81982
2 *353:10 *353:21 0.0773243
3 *353:21 *353:22 0.0800859
4 *353:20 *353:21 0.596502
5 *353:12 *353:20 33.752
6 *353:11 *353:12 27.9936
7 *353:18 *920:B0 8.76084
8 *353:9 *353:18 1.0135
9 *353:4 *353:11 0.596502
10 *353:19 *353:18 8.76084
11 *353:4 *353:3 14.2409
12 *353:17 *353:19 0.701994
13 *353:13 *353:3 2.16508
14 *353:5 *353:17 8.76084
15 *353:13 *353:16 0.167904
16 *353:6 *353:5 36.1966019
17 *353:8 *353:15 0.214299
18 *353:15 *353:16 2.16508
19 *353:14 *353:6 8.76084
20 *353:14 *353:15 8.76084
21 *353:7 *353:14 1.01295
22 *1019:PAD *353 0.0066278
*END

*D_NET *354 0.172045

*CONN
*P *354 I *C 1949.29 1388 *L 0
*I *1018:PAD B *C 1949.29 1388 *L 0 *D PADDI
*I *925:A0 I *C 1326.38 583.085 *L 0.000211 *D AOI22XL

*CAP
1 *1018:PAD 0.00194094
2 *925:A0 2.27141e-05
3 *354:3 0.0153947
4 *354:4 0.02096577
5 *354:5 0.0102242
6 *354:6 0.00513627
7 *354:7 0.00513179
8 *354:8 0.00278168
9 *354:9 0.00278168
10 *354:10 6.01444e-05
11 *354:11 6.01444e-05
12 *354:12 4.06295e-05
13 *354:13 4.06295e-05
14 *354:14 3.83901e-05
15 *354:15 3.83901e-05
16 *354:16 8.28585e-05
17 *354:17 8.28585e-05
18 *354:18 0.00443437
19 *354:19 0.0110317
20 *354:20 0.00670354
21 *354:24 0.0046484
22 *354:25 4.79876e-05
23 *354:26 4.79876e-05
24 *354:27 1.79154e-05
25 *354:28 1.79154e-05
26 *354:29 1.63158e-05
27 *354:30 7.61403e-05
28 *354:31 7.61403e-05
29 *354:32 0.00259453
30 *354:33 0.00259453
31 *354:34 0.00537589
32 *354:35 0.0195409
33 *354:36 0.020356
34 *354:37 0.00342599
35 *354:38 0.00619104
36 *354:39 0.00342599
37 *354:40 4.47884e-05
38 *354:41 7.77399e-05
39 *354:42 5.05469e-05
40 *354:43 0.00198541
41 *354:18 *353:20 0.00329558
42 *354:19 *353:12 0.00329558
43 *354:19 *353:12 0.00274834
44 *354:20 *353:11 0.00274834025
45 *354:3 *246:6 6.49e-06
46 *354:4 *246:2 6.49e-06
47 *354:3 *246:4 4.84e-06
48 *354:4 *246:3 4.84e-06
49 *354:4 *246:2 0.00062081
50 *354:5 *246:5 0.000620809976
51 *354:6 *247:15 0.00034478
52 *354:7 *247:14 0.00034478
53 *354:8 *247:15 0.00017966
54 *354:9 *247:14 0.00017966
55 *354:8 *247:11 1.027e-05
56 *354:9 *247:10 1.027e-05
57 *354:10 *247:13 7.52e-06
58 *354:11 *247:12 7.52e-06
59 *354:8 *247:8 1.06e-06
60 *354:9 *247:7 1.05998255e-06

*RES
1 *354:9 *925:A0 8.76079
2 *1018:PAD *354:43 3.80752
3 *354:9 *354:8 222.863
4 *354:41 *354:43 0.0659196
5 *354:13 *354:8 8.76079
6 *354:40 *354:41 0.0801725
7 *354:13 *354:12 2.1327
8 *354:40 *354:42 0.071688
9 *354:17 *354:12 8.76079
10 *354:18 *354:42 0.59663
11 *354:17 *354:16 4.7192
12 *354:19 *354:18 33.5678
13 *354:20 *354:19 45.8036
14 *354:14 *354:16 8.76079
15 *354:39 *354:20 0.59663
16 *354:15 *354:14 2.12688
17 *354:37 *354:39 49.6858
18 *354:7 *354:15 8.76079
19 *354:38 *354:37 0.59663
20 *354:7 *354:6 413.992
21 *354:36 *354:38 36.5816
22 *354:35 *354:36 83.1669
23 *354:34 *354:35 31.7485
24 *354:11 *354:6 1.07968
25 *354:33 *354:34 0.59663
26 *354:11 *354:10 5.01286
27 *354:32 *354:33 37.5673
28 *354:10 *354:5 1.07968
29 *354:31 *354:32 2.16491
30 *354:3 *354:24 355.006
31 *354:4 *354:3 786.777
32 *354:5 *354:4 790.06
33 *354:30 *354:31 0.797269
34 *354:25 *354:24 8.76079
35 *354:23 *354:29 1.02178
36 *354:29 *354:30 2.16491
37 *354:25 *354:26 2.83194
38 *354:22 *354:28 1.02178
39 *354:28 *354:29 8.76079
40 *354:27 *354:26 8.76079
41 *354:27 *354:28 8.76079
42 *354:21 *354:27 1.02178
43 *1018:PAD *354 0.00653203
*END

*D_NET *355 0.0295476

*CONN
*P *355 I *C 1949.29 1326 *L 0
*I *1017:PAD B *C 1949.29 1326 *L 0 *D PADDI
*I *926:B0 I *C 1781.9 1327.0551 *L 0.000211 *D AOI22XL

*CAP
1 *1017:PAD 0.00193136
2 *926:B0 2.26268e-05
3 *355:3 1.90711e-05
4 *355:4 1.90711e-05
5 *355:5 0.00102208
6 *355:6 0.00102208
7 *355:12 3.84655e-05
8 *355:13 0.00482322
9 *355:14 0.01059176
10 *355:15 1.79398e-05
11 *355:16 1.79398e-05
12 *355:17 1.63236e-05
13 *355:18 3.84655e-05
14 *355:19 1.79398e-05
15 *355:20 2.98997e-05
16 *355:21 0.00196885
17 *355:22 0.00587456
18 *355:23 3.5718e-05
19 *355:5 *382:11 0.00051006
20 *355:6 *382:12 0.000510060004
21 *355:5 *387:33 0.00051006
22 *355:6 *387:32 0.000510060004

*RES
1 *1017:PAD *355:21 3.79512
2 *355:20 *355:21 0.0803418
3 *355:11 *355:23 0.0257506
4 *355:20 *355:23 0.0180254
5 *355:22 *355:23 0.596383
6 *355:14 *355:22 33.7517853
7 *355:13 *355:14 27.994
8 *355:5 *355:13 0.596383
9 *355:6 *355:5 24.7988
10 *355:12 *355:6 2.16511
11 *355:19 *926:B0 8.76086
12 *355:10 *355:19 1.01406
13 *355:12 *355:18 0.335787
14 *355:3 *355:19 8.76086
15 *355:9 *355:17 1.01303
16 *355:17 *355:18 2.16511
17 *355:4 *355:3 0.705051
18 *355:8 *355:16 1.01303
19 *355:16 *355:17 8.76086
20 *355:15 *355:4 8.76086
21 *355:15 *355:16 8.76086
22 *355:7 *355:15 1.01406
23 *1017:PAD *355 0.00669515
*END

*D_NET *356 0.0284909

*CONN
*P *356 I *C 1949.29 1264 *L 0
*I *1016:PAD B *C 1949.29 1264 *L 0 *D PADDI
*I *921:B0 I *C 1782.3 1267.205 *L 0.000211 *D AOI22XL

*CAP
1 *1016:PAD 0.00194716
2 *921:B0 2.26526e-05
3 *356:3 0.00083895
4 *356:4 0.00083895
5 *356:5 0.000757657
6 *356:6 0.000757657
7 *356:12 1.75116e-05
8 *356:13 1.75116e-05
9 *356:14 1.78329e-05
10 *356:15 1.78329e-05
11 *356:16 1.62263e-05
12 *356:17 2.7151e-05
13 *356:18 0.0047601
14 *356:19 0.01052864
15 *356:20 0.00587457
16 *356:21 3.58265e-05
17 *356:22 3.00428e-05
18 *356:23 0.00198459

*RES
1 *1016:PAD *356:23 3.81981
2 *356:22 *356:23 0.0801416
3 *356:11 *356:21 0.0588796
4 *356:21 *356:22 0.017991
5 *356:20 *356:21 0.596973
6 *356:19 *356:20 33.7519
7 *356:18 *356:19 27.626
8 *356:3 *356:18 0.596973
9 *356:4 *356:3 10.0578
10 *356:10 *356:17 0.263322
11 *356:17 *356:4 2.16464
12 *356:9 *356:16 0.214256
13 *356:16 *356:17 2.16464
14 *356:8 *356:15 1.0124
15 *356:15 *356:16 8.76079
16 *356:12 *921:B0 8.76079
17 *356:5 *356:15 8.76079
18 *356:12 *356:13 0.666484
19 *356:6 *356:5 53.5934792
20 *356:14 *356:13 8.76079
21 *356:14 *356:6 8.76079
22 *356:7 *356:14 1.0124
23 *1016:PAD *356 0.00654217
*END

*D_NET *357 0.0286891

*CONN
*P *357 I *C 1949.29 1202 *L 0
*I *1015:PAD B *C 1949.29 1202 *L 0 *D PADDI
*I *922:B0 I *C 1782.3 1200.515 *L 0.000211 *D AOI22XL

*CAP
1 *1015:PAD 0.0019122
2 *922:B0 2.25983e-05
3 *357:3 2.85283e-05
4 *357:4 2.85283e-05
5 *357:5 0.00156248
6 *357:6 0.00156248
7 *357:11 1.79504e-05
8 *357:12 0.0047349
9 *357:13 0.01050338
10 *357:14 0.00017742
11 *357:15 1.79504e-05
12 *357:16 1.61874e-05
13 *357:17 2.70858e-05
14 *357:18 0.00017742
15 *357:19 0.00587458
16 *357:20 4.07089e-05
17 *357:21 3.49391e-05
18 *357:22 0.0019497

*RES
1 *357:22 *1015:PAD 3.75752
2 *357:21 *357:22 0.0803418
3 *357:20 *357:21 0.0360508
4 *357:19 *357:20 0.596383
5 *357:13 *357:19 33.7517853
6 *357:12 *357:13 27.4784
7 *357:6 *357:12 0.596383
8 *357:6 *357:5 21.5682
9 *357:10 *357:17 0.263686
10 *357:17 *357:5 2.16511
11 *357:9 *357:16 0.214245
12 *357:16 *357:17 2.16511
13 *357:8 *357:15 1.01303
14 *357:15 *357:16 8.76086
15 *357:14 *357:15 8.76086
16 *357:14 *357:18 12.0157
17 *357:3 *357:18 8.76086
18 *357:4 *357:3 1.4101
19 *357:11 *922:B0 8.76086
20 *357:11 *357:4 8.76086
21 *357:7 *357:11 1.01457
22 *1015:PAD *357 0.00669515
*END

*D_NET *358 0.0284743

*CONN
*P *358 I *C 1949.29 1140 *L 0
*I *1014:PAD B *C 1949.29 1140 *L 0 *D PADDI
*I *924:B0 I *C 1782.3 1138.955 *L 0.000211 *D AOI22XL

*CAP
1 *1014:PAD 0.00194411
2 *924:B0 2.26526e-05
3 *358:9 0.00129264
4 *358:10 0.0047601
5 *358:11 0.01052864
6 *358:12 0.000307336
7 *358:13 1.78329e-05
8 *358:14 1.62263e-05
9 *358:15 2.7151e-05
10 *358:16 0.00129264
11 *358:17 1.78329e-05
12 *358:18 1.78329e-05
13 *358:19 0.000307336
14 *358:20 3.00428e-05
15 *358:21 0.00198154
16 *358:22 0.00587457
17 *358:23 3.58265e-05

*RES
1 *358:21 *1014:PAD 3.81984
2 *358:8 *358:20 0.0571663
3 *358:20 *358:21 0.0803418
4 *358:20 *358:23 0.0180254
5 *358:22 *358:23 0.596383
6 *358:11 *358:22 33.7517853
7 *358:10 *358:11 27.6257
8 *358:17 *924:B0 8.76086
9 *358:6 *358:17 0.214245
10 *358:9 *358:10 0.596383
11 *358:18 *358:17 8.76086
12 *358:7 *358:18 1.012
13 *358:9 *358:16 19.6132
14 *358:19 *358:18 8.76086
15 *358:5 *358:15 0.263171
16 *358:15 *358:16 2.16511
17 *358:12 *358:19 21.3477
18 *358:4 *358:14 1.012
19 *358:14 *358:15 2.16511
20 *358:13 *358:12 8.76086
21 *358:13 *358:14 8.76086
22 *358:3 *358:13 1.012
23 *1014:PAD *358 0.00669515
*END

*D_NET *359 0.0355396

*CONN
*P *359 I *C 1949.29 1078 *L 0
*I *1013:PAD B *C 1949.29 1078 *L 0 *D PADDI
*I *923:B0 I *C 1781.7 1080.8149 *L 0.000211 *D AOI22XL

*CAP
1 *1013:PAD 0.00191524
2 *923:B0 2.27132e-05
3 *359:3 0.00106208
4 *359:4 0.00106208
5 *359:8 0.000145625
6 *359:9 0.000145625
7 *359:10 1.7863e-05
8 *359:11 1.7863e-05
9 *359:12 1.62068e-05
10 *359:13 0.000138408
11 *359:14 0.000710142
12 *359:15 0.00340047
13 *359:16 0.00775265
14 *359:17 0.000138408
15 *359:18 0.000710142
16 *359:19 0.00445817
17 *359:20 6.53004e-05
18 *359:21 5.95038e-05
19 *359:22 0.00195274
20 *359:19 *360:7 0.00331365
21 *359:16 *360:8 0.00331365
22 *359:16 *360:8 0.00256049
23 *359:15 *360:9 0.00256049013

*RES
1 *359:22 *1013:PAD 3.75744
2 *359:21 *359:22 0.0804167
3 *359:20 *359:21 0.12587
4 *359:19 *359:20 0.596715
5 *359:16 *359:19 33.7517
6 *359:15 *359:16 26.0807
7 *359:14 *359:15 0.596715
8 *359:14 *359:18 10.6861
9 *359:3 *923:B0 8.76076
10 *359:17 *359:18 2.16542
11 *359:4 *359:3 76.3795471
12 *359:13 *359:17 1.67943
13 *359:8 *359:4 8.76076
14 *359:7 *359:12 1.01278
15 *359:12 *359:13 2.16542
16 *359:8 *359:9 9.82948
17 *359:6 *359:11 1.01278
18 *359:11 *359:12 8.76076
19 *359:10 *359:9 8.76076
20 *359:10 *359:11 8.76076
21 *359:5 *359:10 1.01395
22 *1013:PAD *359 0.00699276
*END

*D_NET *360 0.0354784

*CONN
*P *360 I *C 1949.29 1016 *L 0
*I *1012:PAD B *C 1949.29 1016 *L 0 *D PADDI
*I *915:A0 I *C 1776.38 1019.375 *L 0.000211 *D AOI22XL

*CAP
1 *1012:PAD 0.00194411
2 *915:A0 2.26429e-05
3 *360:3 0.000212818
4 *360:4 0.000212818
5 *360:5 0.0011296
6 *360:6 0.0011296
7 *360:7 0.00447388
8 *360:8 0.00833653
9 *360:9 0.00396861
10 *360:13 3.82894e-05
11 *360:14 3.82894e-05
12 *360:15 1.79362e-05
13 *360:16 1.79362e-05
14 *360:17 1.62825e-05
15 *360:18 5.19006e-05
16 *360:19 5.19006e-05
17 *360:20 4.56674e-05
18 *360:21 3.98159e-05
19 *360:22 0.00198151
20 *360:7 *359:19 0.00331365
21 *360:8 *359:16 0.00331365
22 *360:8 *359:16 0.00256049
23 *360:9 *359:15 0.00256049013

*RES
1 *1012:PAD *360:22 3.81969
2 *360:21 *360:22 0.0795502
3 *360:20 *360:21 0.0538889
4 *360:7 *360:20 0.596627
5 *360:8 *360:7 33.9846
6 *360:9 *360:8 29.3925
7 *360:3 *360:9 0.596627
8 *360:4 *360:3 2.70727
9 *360:6 *915:A0 8.76079
10 *360:19 *360:4 2.16454
11 *360:6 *360:5 84.0871429
12 *360:18 *360:19 0.502963
13 *360:13 *360:5 8.76079
14 *360:12 *360:17 0.214272
15 *360:17 *360:18 2.16454
16 *360:13 *360:14 2.10423
17 *360:11 *360:16 1.01234
18 *360:16 *360:17 8.76079
19 *360:15 *360:14 8.76079
20 *360:15 *360:16 8.76079
21 *360:10 *360:15 0.214272
22 *1012:PAD *360 0.00641534
*END

*D_NET *361 0.0364867

*CONN
*P *361 I *C 1949.29 954 *L 0
*I *1011:PAD B *C 1949.29 954 *L 0 *D PADDI
*I *912:A0 I *C 1779.38 954.395 *L 0.000211 *D AOI22XL

*CAP
1 *1011:PAD 0.00191222
2 *912:A0 2.26999e-05
3 *361:3 0.000706023
4 *361:4 0.000706023
5 *361:5 1.89351e-05
6 *361:6 1.89351e-05
7 *361:7 0.00105859
8 *361:8 0.00105859
9 *361:9 0.00363586
10 *361:10 0.00725678
11 *361:11 9.91046e-05
12 *361:12 3.01189e-05
13 *361:13 0.00365801
14 *361:17 1.79385e-05
15 *361:18 1.79385e-05
16 *361:19 1.62775e-05
17 *361:20 0.00011505
18 *361:21 0.00011505
19 *361:22 3.98633e-05
20 *361:23 6.93178e-05
21 *361:24 4.56213e-05
22 *361:25 0.000120919
23 *361:26 0.00123421
24 *361:27 0.000120919
25 *361:28 0.00123421
26 *361:29 0.000120919
27 *361:30 0.00200136
28 *361:9 *362:24 0.00274285
29 *361:10 *362:21 0.00274285
30 *361:11 *362:24 1.916e-05
31 *361:12 *362:21 1.916e-05
32 *361:10 *362:21 0.00275557
33 *361:13 *362:20 0.00275557003

*RES
1 *361:30 *1011:PAD 3.75739
2 *361:29 *361:30 0.13176
3 *361:28 *361:29 0.0629193
4 *361:26 *361:28 1.77951
5 *361:26 *361:27 0.0629193
6 *361:25 *361:27 0.13176
7 *361:23 *361:25 0.0629193
8 *361:22 *361:23 0.0799445
9 *361:22 *361:24 0.0540366
10 *361:11 *361:24 0.596623
11 *361:12 *361:11 0.110294
12 *361:12 *361:9 0.106593
13 *361:10 *361:9 27.9376
14 *361:13 *361:10 28.0672
15 *361:8 *361:13 0.596623
16 *361:8 *361:7 14.1902
17 *361:21 *361:7 2.16516
18 *361:20 *361:21 1.34351
19 *361:16 *361:19 0.213926
20 *361:19 *361:20 2.16516
21 *361:15 *361:18 1.01337
22 *361:18 *361:19 8.76059
23 *361:4 *361:18 8.76059
24 *361:4 *361:3 48.5115128
25 *361:5 *361:3 8.76059
26 *361:6 *361:5 0.707657
27 *361:17 *912:A0 8.76059
28 *361:17 *361:6 8.76059
29 *361:14 *361:17 1.01559
30 *1011:PAD *361 0.00666204
*END

*D_NET *362 0.0353727

*CONN
*P *362 I *C 1949.29 892 *L 0
*I *1010:PAD B *C 1949.29 892 *L 0 *D PADDI
*I *913:A0 I *C 1780.38 892.835 *L 0.000211 *D AOI22XL

*CAP
1 *1010:PAD 0.0019379
2 *913:A0 2.11476e-05
3 *362:3 2.29099e-05
4 *362:4 2.29099e-05
5 *362:5 3.39872e-05
6 *362:6 0.000430504
7 *362:7 0.000435287
8 *362:8 0.000250624
9 *362:9 0.000245966
10 *362:10 2.39169e-05
11 *362:11 2.39169e-05
12 *362:12 0.0010468
13 *362:13 0.0010468
14 *362:16 3.77635e-05
15 *362:17 3.77635e-05
16 *362:18 1.62383e-05
17 *362:19 2.71897e-05
18 *362:20 0.00365803
19 *362:21 0.00824944
20 *362:22 4.48127e-05
21 *362:23 0.00197528
22 *362:24 0.00469753
23 *362:25 5.06031e-05
24 *362:24 *361:9 0.00274285
25 *362:21 *361:10 0.00274285
26 *362:24 *361:11 1.916e-05
27 *362:21 *361:12 1.916e-05
28 *362:21 *361:10 0.00275557
29 *362:20 *361:13 0.00275557003

*RES
1 *362:5 *913:A0 1.18659
2 *362:4 *362:5 8.76086
3 *362:4 *362:3 1.49868
4 *362:11 *362:3 8.76086
5 *1010:PAD *362:23 3.80748
6 *362:11 *362:10 1.56769
7 *362:22 *362:23 0.0803418
8 *362:9 *362:10 8.76086
9 *362:22 *362:25 0.0715866
10 *362:9 *362:8 16.7652
11 *362:24 *362:25 0.596383
12 *362:8 *362:7 1.07174
13 *362:21 *362:24 33.7517853
14 *362:20 *362:21 28.0676
15 *362:7 *362:6 30.2255
16 *362:12 *362:20 0.596383
17 *362:16 *362:6 8.76086
18 *362:13 *362:12 14.0114
19 *362:16 *362:17 2.10382
20 *362:15 *362:19 0.263171
21 *362:19 *362:13 2.16511
22 *362:18 *362:17 8.76086
23 *362:18 *362:19 2.16511
24 *362:14 *362:18 0.21373
25 *1010:PAD *362 0.00669515
*END

*D_NET *363 0.0286291

*CONN
*P *363 I *C 1949.29 830 *L 0
*I *1009:PAD B *C 1949.29 830 *L 0 *D PADDI
*I *917:A0 I *C 1779.98 831.275 *L 0.000211 *D AOI22XL

*CAP
1 *1009:PAD 0.00148747
2 *917:A0 2.2599e-05
3 *363:3 4.14587e-05
4 *363:4 4.14587e-05
5 *363:5 0.00121319
6 *363:6 0.00121319
7 *363:7 4.04832e-05
8 *363:8 4.17838e-05
9 *363:9 4.17838e-05
10 *363:10 4.04832e-05
11 *363:11 0.000308095
12 *363:12 0.000308095
13 *363:16 3.56057e-05
14 *363:17 3.56057e-05
15 *363:18 1.78841e-05
16 *363:19 1.62583e-05
17 *363:20 2.71514e-05
18 *363:21 0.00488627
19 *363:22 0.01065488
20 *363:23 0.000375079
21 *363:24 0.00152503
22 *363:25 0.00587461
23 *363:26 0.000380769

*RES
1 *1009:PAD *363:24 2.91796
2 *363:23 *363:24 0.0796151
3 *363:23 *363:26 1.27258
4 *363:25 *363:26 0.596481
5 *363:22 *363:25 33.7517
6 *363:21 *363:22 28.3619
7 *363:7 *363:21 0.596481
8 *363:8 *363:7 0.31846
9 *363:4 *917:A0 8.76018
10 *363:11 *363:8 0.278021
11 *363:4 *363:3 2.19005
12 *363:12 *363:11 3.97949
13 *363:16 *363:3 8.76018
14 *363:12 *363:9 0.278021
15 *363:16 *363:17 1.40401
16 *363:10 *363:9 0.31846
17 *363:6 *363:17 8.76018
18 *363:15 *363:20 0.262856
19 *363:20 *363:10 2.16477
20 *363:6 *363:5 82.8198853
21 *363:14 *363:19 0.213571
22 *363:19 *363:20 2.16477
23 *363:18 *363:5 8.76018
24 *363:18 *363:19 8.76018
25 *363:13 *363:18 1.01225
26 *1009:PAD *363 0.00631866
*END

*D_NET *364 0.0571273

*CONN
*P *364 I *C 1636 1949.29 *L 0
*I *1008:PAD B *C 1636 1949.29 *L 0 *D PADDI
*I *916:A0 I *C 1635.98 1448.345 *L 0.000211 *D AOI22XL

*CAP
1 *1008:PAD 0.00262745
2 *916:A0 2.26021e-05
3 *364:3 0.00387057
4 *364:4 0.00386598
5 *364:8 0.0102721
6 *364:9 0.01113706
7 *364:10 0.00088743
8 *364:11 0.00151281
9 *364:12 0.00151281
10 *364:13 1.81836e-05
11 *364:14 1.81836e-05
12 *364:15 1.78438e-05
13 *364:16 1.63143e-05
14 *364:17 2.60009e-05
15 *364:18 2.60009e-05
16 *364:19 2.61709e-05
17 *364:20 0.000127286
18 *364:21 0.00924375
19 *364:22 0.00923797
20 *364:23 0.00266076

*RES
1 *364:4 *916:A0 8.76079
2 *1008:PAD *364:23 3.88926
3 *364:4 *364:3 295.686
4 *364:22 *364:23 0.0801725
5 *364:3 *364:8 1.07968
6 *364:21 *364:22 33.2453
7 *364:9 *364:10 66.1896
8 *364:8 *364:9 786.651
9 *364:20 *364:21 0.59663
10 *364:11 *364:10 8.76079
11 *364:7 *364:19 0.253428
12 *364:19 *364:20 0.59663
13 *364:11 *364:12 108.324
14 *364:18 *364:19 2.16491
15 *364:13 *364:12 8.76079
16 *364:17 *364:18 0.161382
17 *364:13 *364:14 0.668221
18 *364:6 *364:16 1.01514
19 *364:16 *364:17 2.16491
20 *364:15 *364:14 8.76079
21 *364:15 *364:16 8.76079
22 *364:5 *364:15 1.01514
23 *1008:PAD *364 0.00653203
*END

*D_NET *365 0.090834

*CONN
*P *365 I *C 1574 1949.29 *L 0
*I *1007:PAD B *C 1574 1949.29 *L 0 *D PADDI
*I *914:A0 I *C 1574.38 1385.3149 *L 0.000211 *D AOI22XL

*CAP
1 *1007:PAD 0.00262766
2 *914:A0 2.25978e-05
3 *365:3 0.00734361
4 *365:4 0.00736089
5 *365:8 0.00266089
6 *365:9 0.0020225
7 *365:10 7.6766e-05
8 *365:11 1.82776e-05
9 *365:12 1.62837e-05
10 *365:13 2.5921e-05
11 *365:14 2.5921e-05
12 *365:15 2.5921e-05
13 *365:16 1.79453e-05
14 *365:17 1.79453e-05
15 *365:18 1.82776e-05
16 *365:19 2.5921e-05
17 *365:20 0.0126003
18 *365:21 0.0217786
19 *365:22 0.0092046
20 *365:23 0.00195903
21 *365:3 *366:23 0.0114424
22 *365:4 *366:22 0.0114424
23 *365:3 *366:21 4.975e-05
24 *365:4 *366:20 4.9690832e-05

*RES
1 *365:8 *1007:PAD 3.88923
2 *365:3 *365:8 0.0814782
3 *365:4 *365:3 32.833
4 *365:4 *365:10 0.114069
5 *365:14 *914:A0 8.76162
6 *365:9 *365:10 0.597507
7 *365:14 *365:15 1.34439
8 *365:9 *365:23 11.1679
9 *365:16 *365:15 8.76162
10 *365:6 *365:16 1.02119
11 *365:22 *365:23 0.597507
12 *365:17 *365:16 8.76162
13 *365:7 *365:17 1.02119
14 *365:21 *365:22 134.439
15 *365:20 *365:21 177.991837
16 *365:18 *365:17 8.76162
17 *365:19 *365:20 2.1646
18 *365:11 *365:18 0.70886
19 *365:13 *365:19 0.16024
20 *365:12 *365:11 8.76162
21 *365:12 *365:13 2.1646
22 *365:5 *365:12 1.02119
23 *1007:PAD *365 0.00543188
*END

*D_NET *366 0.0900909

*CONN
*P *366 I *C 1512 1949.29 *L 0
*I *1006:PAD B *C 1512 1949.29 *L 0 *D PADDI
*I *918:A0 I *C 1508.98 1328.645 *L 0.000211 *D AOI22XL

*CAP
1 *1006:PAD 0.00258312
2 *918:A0 2.25613e-05
3 *366:3 0.01920198
4 *366:4 0.0106173
5 *366:8 0.00860229
6 *366:9 4.80526e-05
7 *366:10 4.80526e-05
8 *366:11 1.78732e-05
9 *366:12 1.78732e-05
10 *366:13 1.64082e-05
11 *366:14 6.35817e-05
12 *366:15 6.35817e-05
13 *366:16 0.00274925
14 *366:17 0.00274925
15 *366:18 0.00201586
16 *366:19 0.00207945
17 *366:20 0.000147088
18 *366:21 0.000158222
19 *366:22 0.00665323
20 *366:23 0.00663594
21 *366:24 0.00261623
22 *366:23 *365:3 0.0114424
23 *366:22 *365:4 0.0114424
24 *366:21 *365:3 4.975e-05
25 *366:20 *365:4 4.9690832e-05

*RES
1 *1006:PAD *366:24 3.82334
2 *366:23 *366:24 0.0801725
3 *366:22 *366:23 30.1627
4 *366:21 *366:22 0.11483
5 *366:20 *366:21 0.426466
6 *366:19 *366:20 0.59663
7 *366:18 *366:19 11.4974
8 *366:17 *366:18 0.59663
9 *366:16 *366:17 40.5133
10 *366:4 *918:A0 8.76079
11 *366:15 *366:16 2.16491
12 *366:3 *366:8 658.739
13 *366:4 *366:3 787.712
14 *366:14 *366:15 0.637815
15 *366:9 *366:8 8.76079
16 *366:7 *366:13 1.02178
17 *366:13 *366:14 2.16491
18 *366:9 *366:10 2.83194
19 *366:6 *366:12 1.02178
20 *366:12 *366:13 8.76079
21 *366:11 *366:10 8.76079
22 *366:11 *366:12 8.76079
23 *366:5 *366:11 1.02178
24 *1006:PAD *366 0.00653203
*END

*D_NET *367 0.0840276

*CONN
*P *367 I *C 1450 1949.29 *L 0
*I *1005:PAD B *C 1450 1949.29 *L 0 *D PADDI
*I *911:A0 I *C 1450.78 1267.085 *L 0.000211 *D AOI22XL

*CAP
1 *1005:PAD 0.00262739
2 *911:A0 2.26792e-05
3 *367:7 2.60811e-05
4 *367:8 2.60811e-05
5 *367:9 1.77654e-05
6 *367:10 0.000537875
7 *367:11 0.000537875
8 *367:12 1.77654e-05
9 *367:13 1.62534e-05
10 *367:14 2.7215e-05
11 *367:15 0.0121961
12 *367:16 0.02477136
13 *367:17 0.015324
14 *367:18 0.00274872
15 *367:19 0.00190846
16 *367:20 0.00197196
17 *367:21 7.67313e-05
18 *367:22 0.00926483
19 *367:23 0.00924782
20 *367:24 0.00266065

*RES
1 *1005:PAD *367:24 3.89021
2 *367:23 *367:24 0.0811023
3 *367:22 *367:23 33.2817
4 *367:21 *367:22 0.113543
5 *367:20 *367:21 0.597453
6 *367:19 *367:20 10.9948
7 *367:18 *367:19 0.597453
8 *367:17 *367:18 39.8131
9 *367:16 *367:17 177.170593
10 *367:15 *367:16 177.170593
11 *367:6 *367:14 0.251417
12 *367:14 *367:15 2.16543
13 *367:5 *367:13 1.02189
14 *367:13 *367:14 2.16543
15 *367:4 *367:12 1.02189
16 *367:12 *367:13 8.76175
17 *367:7 *911:A0 8.76175
18 *367:11 *367:12 8.76175
19 *367:7 *367:8 1.3463
20 *367:10 *367:11 38.337
21 *367:9 *367:8 8.76175
22 *367:9 *367:10 8.76175
23 *367:3 *367:9 1.02189
24 *1005:PAD *367 0.00540682
*END

*D_NET *368 0.0569039

*CONN
*P *368 I *C 1388 1949.29 *L 0
*I *1004:PAD B *C 1388 1949.29 *L 0 *D PADDI
*I *919:B0 I *C 1393.1 1510.025 *L 0.000211 *D AOI22XL

*CAP
1 *1004:PAD 0.0020781
2 *919:B0 2.2655e-05
3 *368:3 1.97956e-05
4 *368:4 1.97956e-05
5 *368:9 0.00262754
6 *368:10 1.7816e-05
7 *368:11 0.000352142
8 *368:12 0.000352142
9 *368:13 1.7816e-05
10 *368:14 1.62764e-05
11 *368:15 2.7054e-05
12 *368:16 0.0126014
13 *368:17 0.0144145
14 *368:18 0.00183945
15 *368:19 0.00127308
16 *368:20 0.0016096
17 *368:21 0.000442542
18 *368:22 7.69829e-05
19 *368:23 0.00926478
20 *368:24 0.00924785
21 *368:25 0.000582651

*RES
1 *368:9 *368:25 0.814181
2 *1004:PAD *368:9 3.07549
3 *368:24 *368:25 0.0811476
4 *368:23 *368:24 33.2813
5 *368:22 *368:23 0.113607
6 *368:21 *368:22 0.597787
7 *368:20 *368:21 2.08279
8 *368:19 *368:20 7.29247
9 *368:18 *368:19 0.597787
10 *368:17 *368:18 26.5867
11 *368:16 *368:17 177.269669
12 *368:8 *368:15 0.251558
13 *368:15 *368:16 2.16394
14 *368:7 *368:14 1.02246
15 *368:14 *368:15 2.16394
16 *368:6 *368:13 1.02246
17 *368:13 *368:14 8.76124
18 *368:4 *919:B0 8.76124
19 *368:12 *368:13 8.76124
20 *368:4 *368:3 0.733033
21 *368:11 *368:12 24.8853
22 *368:10 *368:3 8.76124
23 *368:10 *368:11 8.76124
24 *368:5 *368:10 1.02246
25 *1004:PAD *368 0.00540984
*END

*D_NET *369 0.152218

*CONN
*P *369 I *C 1326 1949.29 *L 0
*I *1003:PAD B *C 1326 1949.29 *L 0 *D PADDI
*I *929:A0 I *C 1325.78 646.595 *L 0.000211 *D AOI22XL

*CAP
1 *1003:PAD 0.00258301
2 *929:A0 2.26778e-05
3 *369:8 1.77643e-05
4 *369:9 1.77643e-05
5 *369:10 0.000157233
6 *369:11 0.000157233
7 *369:12 1.77643e-05
8 *369:13 1.62525e-05
9 *369:14 2.72134e-05
10 *369:15 0.0121803
11 *369:16 0.0243345
12 *369:17 0.024336
13 *369:18 0.0243503
14 *369:19 0.02476988
15 *369:20 0.013256
16 *369:21 0.000681091
17 *369:22 0.00197146
18 *369:23 0.00203534
19 *369:24 0.000957383
20 *369:25 0.000968722
21 *369:26 9.63808e-05
22 *369:27 7.93725e-05
23 *369:28 0.00261627
24 *369:29 0.00828422
25 *369:30 0.00828422

*RES
1 *1003:PAD *369:28 3.82262
2 *369:27 *369:28 0.0811023
3 *369:26 *369:27 0.197349
4 *369:26 *369:30 0.116247
5 *369:29 *369:30 29.9646
6 *369:25 *369:29 0.113543
7 *369:24 *369:25 3.06567
8 *369:23 *369:24 0.597453
9 *369:22 *369:23 11.3624
10 *369:21 *369:22 0.597453
11 *369:20 *369:21 9.70253
12 *369:19 *369:20 177.170593
13 *369:18 *369:19 177.170593
14 *369:17 *369:18 177.170593
15 *369:16 *369:17 177.170593
16 *369:15 *369:16 177.170593
17 *369:7 *369:14 0.251417
18 *369:14 *369:15 2.16543
19 *369:6 *369:13 1.02189
20 *369:13 *369:14 2.16543
21 *369:5 *369:12 1.02189
22 *369:12 *369:13 8.76175
23 *369:11 *369:12 8.76175
24 *369:10 *369:11 10.7623
25 *369:4 *369:9 1.02189
26 *369:9 *369:10 8.76175
27 *369:8 *929:A0 8.76175
28 *369:8 *369:9 8.76175
29 *369:3 *369:8 1.02189
30 *1003:PAD *369 0.00540682
*END

*D_NET *370 0.104445

*CONN
*P *370 I *C 1264 1949.29 *L 0
*I *1002:PAD B *C 1264 1949.29 *L 0 *D PADDI
*I *905:B0 I *C 1204.5 1079.105 *L 0.000211 *D AOI22XL

*CAP
1 *1002:PAD 0.00262761
2 *905:B0 2.26778e-05
3 *370:3 1.81423e-05
4 *370:4 1.81423e-05
5 *370:9 1.77643e-05
6 *370:10 1.81423e-05
7 *370:11 1.81423e-05
8 *370:12 1.77643e-05
9 *370:13 1.62525e-05
10 *370:14 2.72134e-05
11 *370:15 0.0121818
12 *370:16 0.0243503
13 *370:17 0.02476988
14 *370:18 0.0148272
15 *370:19 0.00225229
16 *370:20 0.00182632
17 *370:21 0.0018902
18 *370:22 0.00844523
19 *370:23 0.00843956
20 *370:24 0.00266087

*RES
1 *370:24 *1002:PAD 3.88882
2 *370:23 *370:24 0.0812994
3 *370:22 *370:23 30.593
4 *370:21 *370:22 0.596196
5 *370:20 *370:21 10.4036
6 *370:19 *370:20 0.596196
7 *370:18 *370:19 32.6824
8 *370:17 *370:18 177.601303
9 *370:16 *370:17 177.601303
10 *370:15 *370:16 177.601303
11 *370:8 *370:14 0.249318
12 *370:14 *370:15 2.16527
13 *370:7 *370:13 1.02166
14 *370:13 *370:14 2.16527
15 *370:6 *370:12 1.02166
16 *370:12 *370:13 8.76137
17 *370:4 *905:B0 8.76137
18 *370:11 *370:12 8.76137
19 *370:4 *370:3 0.677495
20 *370:10 *370:11 0.672075
21 *370:9 *370:3 8.76137
22 *370:9 *370:10 8.76137
23 *370:5 *370:9 1.02166
24 *1002:PAD *370 0.00541996
*END

*D_NET *371 0.0978078

*CONN
*P *371 I *C 1202 1949.29 *L 0
*I *1001:PAD B *C 1202 1949.29 *L 0 *D PADDI
*I *898:B0 I *C 1203.9 1019.255 *L 0.000211 *D AOI22XL

*CAP
1 *1001:PAD 0.00258284
2 *898:B0 2.28795e-05
3 *371:3 0.0208250963
4 *371:4 0.0105729
5 *371:5 0.0142803
6 *371:6 0.0205204
7 *371:10 0.00828396
8 *371:11 0.00828396
9 *371:12 0.000772818
10 *371:13 0.00089802
11 *371:14 0.000909459
12 *371:15 9.62845e-05
13 *371:16 7.94426e-05
14 *371:17 0.00261621
15 *371:18 1.84307e-05
16 *371:19 1.62063e-05
17 *371:20 2.73283e-05
18 *371:21 2.6375e-05
19 *371:22 0.000709264
20 *371:23 0.00104388
21 *371:24 6.48252e-05
22 *371:25 6.48252e-05
23 *371:26 1.84307e-05
24 *371:27 0.00402997
25 *371:28 0.00104388

*RES
1 *371:17 *1001:PAD 3.82334
2 *371:16 *371:17 0.0801725
3 *371:15 *371:16 0.197142
4 *371:4 *898:B0 8.76079
5 *371:11 *371:15 0.116006
6 *371:5 *371:27 307.528
7 *371:6 *371:5 786.679
8 *371:3 *371:6 787.552
9 *371:4 *371:3 788.768
10 *371:10 *371:11 29.9656
11 *371:28 *371:27 8.76079
12 *371:10 *371:14 0.114809
13 *371:23 *371:28 74.5642
14 *371:13 *371:14 2.85478
15 *371:24 *371:23 8.76079
16 *371:12 *371:13 0.59663
17 *371:24 *371:25 4.00953
18 *371:12 *371:22 4.00766
19 *371:26 *371:25 8.76079
20 *371:9 *371:21 0.253484
21 *371:21 *371:22 0.59663
22 *371:18 *371:26 0.703424
23 *371:8 *371:20 0.25347
24 *371:20 *371:21 2.16491
25 *371:19 *371:18 8.76079
26 *371:19 *371:20 2.16491
27 *371:7 *371:19 1.0152
28 *1001:PAD *371 0.00653203
*END

*D_NET *372 0.120307

*CONN
*P *372 I *C 1140 1949.29 *L 0
*I *1000:PAD B *C 1140 1949.29 *L 0 *D PADDI
*I *906:B0 I *C 1139.7 952.565 *L 0.000211 *D AOI22XL

*CAP
1 *1000:PAD 0.00262755
2 *906:B0 2.1171e-05
3 *372:3 0.000294433
4 *372:4 0.000294433
5 *372:9 0.00201634
6 *372:10 0.00918467
7 *372:11 0.00917918
8 *372:12 0.00266088
9 *372:13 3.09723e-05
10 *372:14 1.84266e-05
11 *372:15 1.60743e-05
12 *372:16 2.70518e-05
13 *372:17 0.0121835
14 *372:18 0.0252723
15 *372:19 0.02569332
16 *372:20 0.0206676
17 *372:21 0.00808966
18 *372:22 0.00195283
19 *372:23 2.27392e-05
20 *372:24 1.80345e-05
21 *372:25 1.80345e-05
22 *372:26 1.84266e-05

*RES
1 *906:B0 *372:13 1.93564
2 *372:12 *1000:PAD 3.89021
3 *372:13 *372:23 0.600157
4 *372:11 *372:12 0.0811023
5 *372:4 *372:23 8.76175
6 *372:10 *372:11 33.2817
7 *372:4 *372:3 20.2593
8 *372:9 *372:10 0.597453
9 *372:24 *372:3 8.76175
10 *372:7 *372:24 1.02189
11 *372:9 *372:22 11.2516
12 *372:25 *372:24 8.76175
13 *372:8 *372:25 1.02189
14 *372:21 *372:22 0.597453
15 *372:26 *372:25 8.76175
16 *372:20 *372:21 117.585
17 *372:19 *372:20 177.170593
18 *372:18 *372:19 177.170593
19 *372:17 *372:18 177.170593
20 *372:14 *372:26 0.708293
21 *372:6 *372:16 0.251417
22 *372:16 *372:17 2.16543
23 *372:15 *372:14 8.76175
24 *372:15 *372:16 2.16543
25 *372:5 *372:15 1.02189
26 *1000:PAD *372 0.00540682
*END

*D_NET *373 0.108735

*CONN
*P *373 I *C 1078 1949.29 *L 0
*I *999:PAD B *C 1078 1949.29 *L 0 *D PADDI
*I *899:B0 I *C 1080.5 891.005 *L 0.000211 *D AOI22XL

*CAP
1 *999:PAD 0.00262738
2 *899:B0 1.00198e-05
3 *373:3 0.000416135
4 *373:4 0.000397661
5 *373:8 2.59889e-05
6 *373:9 2.6302e-05
7 *373:10 0.000127126
8 *373:11 0.00917502
9 *373:12 0.00916907
10 *373:13 0.00266089
11 *373:14 0.00162008
12 *373:15 1.81609e-05
13 *373:16 1.81609e-05
14 *373:17 1.78478e-05
15 *373:18 1.62822e-05
16 *373:19 2.59889e-05
17 *373:20 0.0102897
18 *373:21 0.02052026
19 *373:22 0.020514
20 *373:23 0.0198295
21 *373:24 0.00958238
22 *373:25 0.00162008
23 *373:26 2.66151e-05

*RES
1 *899:B0 *373:26 0.599238
2 *373:4 *373:26 8.76079
3 *373:4 *373:3 27.5844
4 *373:20 *373:3 2.15936
5 *373:23 *373:24 733.948
6 *373:22 *373:23 786.651
7 *373:21 *373:22 786.651
8 *373:20 *373:21 786.651
9 *373:25 *373:24 8.76079
10 *373:14 *373:25 116.065
11 *373:15 *373:14 8.76079
12 *373:15 *373:16 0.668221
13 *373:17 *373:16 8.76079
14 *373:6 *373:17 1.01514
15 *373:13 *999:PAD 3.88926
16 *373:18 *373:17 8.76079
17 *373:7 *373:18 1.01514
18 *373:12 *373:13 0.0801725
19 *373:19 *373:18 2.16491
20 *373:11 *373:12 33.2453
21 *373:8 *373:19 0.161382
22 *373:10 *373:11 0.59663
23 *373:9 *373:8 2.16491
24 *373:9 *373:10 0.59663
25 *373:5 *373:9 0.25344
26 *999:PAD *373 0.00653203
*END

*D_NET *374 0.189263

*CONN
*P *374 I *C 1016 1949.29 *L 0
*I *998:PAD B *C 1016 1949.29 *L 0 *D PADDI
*I *902:B0 I *C 1012.9 335.255 *L 0.000211 *D AOI22XL

*CAP
1 *998:PAD 0.0026276
2 *902:B0 2.27205e-05
3 *374:8 0.00919621
4 *374:9 0.00917907
5 *374:10 0.00266069
6 *374:11 0.00180807
7 *374:12 7.69307e-05
8 *374:13 1.79372e-05
9 *374:14 1.79372e-05
10 *374:15 0.000294569
11 *374:16 0.000294569
12 *374:17 1.79372e-05
13 *374:18 1.63428e-05
14 *374:19 2.71051e-05
15 *374:20 0.0121802
16 *374:21 0.0243344
17 *374:22 0.0243372
18 *374:23 0.0251906
19 *374:24 0.02612256
20 *374:25 0.0256972
21 *374:26 0.0179902
22 *374:27 0.00540827
23 *374:28 0.00174429

*RES
1 *374:10 *998:PAD 3.89021
2 *374:9 *374:10 0.0811023
3 *374:8 *374:9 33.2817
4 *374:8 *374:12 0.113543
5 *374:11 *374:12 0.597453
6 *374:11 *374:28 10.0378
7 *374:27 *374:28 0.597453
8 *374:26 *374:27 78.5367
9 *374:25 *374:26 177.170593
10 *374:24 *374:25 177.170593
11 *374:23 *374:24 177.170593
12 *374:22 *374:23 177.170593
13 *374:21 *374:22 177.170593
14 *374:20 *374:21 177.170593
15 *374:7 *374:19 0.251417
16 *374:19 *374:20 2.16543
17 *374:6 *374:18 1.02189
18 *374:18 *374:19 2.16543
19 *374:5 *374:17 1.02189
20 *374:17 *374:18 8.76175
21 *374:16 *374:17 8.76175
22 *374:15 *374:16 20.1782
23 *374:4 *374:14 1.02189
24 *374:14 *374:15 8.76175
25 *374:13 *902:B0 8.76175
26 *374:13 *374:14 8.76175
27 *374:3 *374:13 1.02189
28 *998:PAD *374 0.00540682
*END

*D_NET *375 0.192128

*CONN
*P *375 I *C 954 1949.29 *L 0
*I *997:PAD B *C 954 1949.29 *L 0 *D PADDI
*I *930:A0 I *C 950.78 333.425 *L 0.000211 *D AOI22XL

*CAP
1 *997:PAD 0.00258306
2 *930:A0 2.26787e-05
3 *375:3 0.00738979
4 *375:4 0.00740709
5 *375:9 0.00261612
6 *375:10 0.00176394
7 *375:11 7.68769e-05
8 *375:12 0.000215255
9 *375:13 0.000215255
10 *375:14 1.80661e-05
11 *375:15 1.80661e-05
12 *375:16 1.80661e-05
13 *375:17 1.80661e-05
14 *375:18 1.61442e-05
15 *375:19 2.72913e-05
16 *375:20 0.0121804
17 *375:21 0.0243342
18 *375:22 0.0243373
19 *375:23 0.02519064
20 *375:24 0.0251891
21 *375:25 0.024764
22 *375:26 0.0181775
23 *375:27 0.00559549
24 *375:28 0.00170013
25 *375:3 *376:29 0.0038926
26 *375:4 *376:28 0.0038926
27 *375:3 *376:27 2.772e-05
28 *375:4 *376:26 2.772e-05
29 *375:3 *376:25 0.00020638
30 *375:4 *376:24 0.000206379854

*RES
1 *375:9 *997:PAD 3.82262
2 *375:3 *375:9 0.0811023
3 *375:4 *375:3 33.3303
4 *375:4 *375:11 0.113543
5 *375:10 *375:11 0.597453
6 *375:10 *375:28 9.78093
7 *375:27 *375:28 0.597453
8 *375:26 *375:27 81.2645
9 *375:25 *375:26 177.170593
10 *375:24 *375:25 177.170593
11 *375:23 *375:24 177.170593
12 *375:22 *375:23 177.170593
13 *375:21 *375:22 177.170593
14 *375:20 *375:21 177.170593
15 *375:8 *375:19 0.251417
16 *375:19 *375:20 2.16543
17 *375:7 *375:18 1.02189
18 *375:18 *375:19 2.16543
19 *375:6 *375:17 1.02189
20 *375:17 *375:18 8.76175
21 *375:12 *930:A0 8.76175
22 *375:16 *375:17 8.76175
23 *375:12 *375:13 13.5279
24 *375:15 *375:16 0.673149
25 *375:14 *375:13 8.76175
26 *375:14 *375:15 8.76175
27 *375:5 *375:14 1.02189
28 *997:PAD *375 0.00540682
*END

*D_NET *376 0.151633

*CONN
*P *376 I *C 892 1949.29 *L 0
*I *996:PAD B *C 892 1949.29 *L 0 *D PADDI
*I *901:A0 I *C 891.98 708.155 *L 0.000211 *D AOI22XL

*CAP
1 *996:PAD 0.00258306
2 *901:A0 2.26787e-05
3 *376:3 2.65225e-05
4 *376:4 2.65225e-05
5 *376:7 1.88348e-05
6 *376:8 1.84505e-05
7 *376:9 1.61442e-05
8 *376:10 2.72913e-05
9 *376:11 0.0121835
10 *376:12 0.02519064
11 *376:13 0.0251891
12 *376:14 0.024764
13 *376:15 0.0215186
14 *376:16 0.00893656
15 *376:17 0.0019273
16 *376:18 1.88348e-05
17 *376:19 0.000621165
18 *376:20 0.000621165
19 *376:21 1.84505e-05
20 *376:22 0.00199111
21 *376:23 7.68769e-05
22 *376:24 0.000775304
23 *376:25 0.000775304
24 *376:26 8.91772e-05
25 *376:27 8.91772e-05
26 *376:28 0.00662717
27 *376:29 0.00660988
28 *376:30 0.00261612
29 *376:29 *375:3 0.0038926
30 *376:28 *375:4 0.0038926
31 *376:27 *375:3 2.772e-05
32 *376:26 *375:4 2.772e-05
33 *376:25 *375:3 0.00020638
34 *376:24 *375:4 0.000206379854

*RES
1 *996:PAD *376:30 3.82262
2 *376:29 *376:30 0.0811023
3 *376:28 *376:29 30.2484
4 *376:25 *376:28 0.116247
5 *376:24 *376:25 2.81966
6 *376:4 *901:A0 8.76175
7 *376:24 *376:27 0.113543
8 *376:4 *376:3 1.3517
9 *376:26 *376:27 0.210866
10 *376:7 *376:3 8.76175
11 *376:23 *376:26 0.113543
12 *376:7 *376:18 0.708293
13 *376:22 *376:23 0.597453
14 *376:19 *376:18 8.76175
15 *376:17 *376:22 11.1029
16 *376:19 *376:20 44.39
17 *376:16 *376:17 0.597453
18 *376:21 *376:20 8.76175
19 *376:15 *376:16 129.918
20 *376:14 *376:15 177.170593
21 *376:13 *376:14 177.170593
22 *376:12 *376:13 177.170593
23 *376:11 *376:12 177.170593
24 *376:8 *376:21 0.708293
25 *376:6 *376:10 0.251417
26 *376:10 *376:11 2.16543
27 *376:9 *376:8 8.76175
28 *376:9 *376:10 2.16543
29 *376:5 *376:9 1.02189
30 *996:PAD *376 0.00540682
*END

*D_NET *377 0.310299

*CONN
*P *377 I *C 830 1949.29 *L 0
*I *995:PAD B *C 830 1949.29 *L 0 *D PADDI
*I *920:A0 I *C 1780.98 1446.875 *L 0.000211 *D AOI22XL

*CAP
1 *995:PAD 0.00258297
2 *920:A0 2.27145e-05
3 *377:3 0.000470747
4 *377:4 0.000470747
5 *377:5 0.00118904
6 *377:6 0.00118904
7 *377:7 3.80121e-05
8 *377:8 3.68532e-05
9 *377:9 0.00460549
10 *377:10 0.0118785
11 *377:11 0.0144346
12 *377:12 0.0148256
13 *377:13 0.0111494
14 *377:14 0.00355367
15 *377:17 0.000641802
16 *377:18 0.000653159
17 *377:19 0.000101288
18 *377:20 8.41365e-05
19 *377:21 0.00261634
20 *377:22 0.00830379
21 *377:23 0.00830379
22 *377:24 0.000107083
23 *377:25 1.87743e-05
24 *377:26 1.78471e-05
25 *377:27 1.83107e-05
26 *377:28 0.000107083
27 *377:29 3.47671e-05
28 *377:30 1.87743e-05
29 *377:31 1.83107e-05
30 *377:32 1.62247e-05
31 *377:33 2.59595e-05
32 *377:34 2.59595e-05
33 *377:35 0.0112901
34 *377:36 0.0151897675
35 *377:37 0.0039273
36 *377:38 4.03299e-05
37 *377:38 *382:8 2.555e-05
38 *377:29 *382:9 2.555e-05
39 *377:9 *382:8 0.00917324
40 *377:10 *382:9 0.00917324
41 *377:10 *382:9 0.0141537
42 *377:11 *382:10 0.0141537
43 *377:28 *382:8 6.339e-05
44 *377:24 *382:9 6.339e-05
45 *377:5 *382:11 0.00039488
46 *377:6 *382:12 0.00039488
47 *377:37 *382:13 0.00060958
48 *377:36 *382:14 0.00060958
49 *377:37 *382:14 0.0005768
50 *377:36 *382:11 0.0005768
51 *377:36 *382:14 0.00283429
52 *377:35 *382:11 0.00283429
53 *377:36 *382:11 0.0005768
54 *377:35 *382:12 0.0005768
55 *377:7 *382:11 5.84e-06
56 *377:8 *382:12 5.84e-06
57 *377:11 *382:10 0.014195
58 *377:12 *382:15 0.014195
59 *377:12 *382:15 0.0140289
60 *377:13 *382:5 0.0140289
61 *377:13 *382:5 0.00689161
62 *377:14 *382:6 0.00689156966
63 *377:9 *383:37 2.555e-05
64 *377:10 *383:30 2.555e-05
65 *377:9 *383:29 0.00485626
66 *377:10 *383:16 0.00485626
67 *377:10 *383:16 0.00798022
68 *377:11 *383:15 0.00798022
69 *377:11 *383:15 0.00802806
70 *377:12 *383:14 0.00802806
71 *377:12 *383:14 0.00782787
72 *377:13 *383:13 0.00782787
73 *377:13 *383:13 0.00389759
74 *377:14 *383:27 0.00389759018

*RES
1 *995:PAD *377:21 3.82461
2 *377:20 *377:21 0.0805786
3 *377:19 *377:20 0.215836
4 *377:19 *377:23 0.115112
5 *377:22 *377:23 30.0385
6 *377:18 *377:22 0.115112
7 *377:17 *377:18 1.95115
8 *377:14 *377:17 0.595706
9 *377:10 *377:9 52.2782
10 *377:11 *377:10 80.8175
11 *377:12 *377:11 80.8175
12 *377:13 *377:12 80.8175
13 *377:14 *377:13 39.236
14 *377:24 *377:9 0.106479
15 *377:24 *377:28 0.661896
16 *377:28 *377:29 0.106479
17 *377:29 *377:38 0.146768
18 *377:37 *377:38 0.595706
19 *377:36 *377:37 65.5363
20 *377:35 *377:36 188.59996
21 *377:35 *377:5 0.279147
22 *377:6 *377:5 19.2007
23 *377:7 *377:6 0.279147
24 *377:8 *377:7 0.319437
25 *377:34 *377:8 2.16411
26 *377:4 *920:A0 8.76004
27 *377:33 *377:34 0.166913
28 *377:4 *377:3 33.4977
29 *377:16 *377:32 1.01299
30 *377:32 *377:33 2.16411
31 *377:30 *377:3 8.76004
32 *377:31 *377:32 8.76004
33 *377:25 *377:30 0.702185
34 *377:27 *377:31 0.702185
35 *377:26 *377:25 8.76004
36 *377:26 *377:27 8.76004
37 *377:15 *377:26 1.01299
38 *995:PAD *377 0.00575561
*END

*D_NET *378 0.138722

*CONN
*P *378 I *C 768 1949.29 *L 0
*I *994:PAD B *C 768 1949.29 *L 0 *D PADDI
*I *904:A0 I *C 768.38 583.085 *L 0.000211 *D AOI22XL

*CAP
1 *994:PAD 0.00262745
2 *904:A0 1.9863e-05
3 *378:3 0.000395631
4 *378:4 0.000377396
5 *378:5 0.02133967
6 *378:6 0.011107
7 *378:10 0.000135459
8 *378:11 0.00901681
9 *378:12 0.00901095
10 *378:13 0.00266066
11 *378:14 1.82349e-05
12 *378:15 1.62811e-05
13 *378:16 2.70267e-05
14 *378:17 2.63754e-05
15 *378:18 7.16369e-05
16 *378:19 0.00148354
17 *378:20 0.000231518
18 *378:21 0.000231518
19 *378:22 1.82349e-05
20 *378:23 3.25622e-05
21 *378:24 0.0205191
22 *378:25 0.0205175
23 *378:26 0.0205171
24 *378:27 0.0135433
25 *378:28 0.00329367
26 *378:29 0.00148354

*RES
1 *378:23 *904:A0 1.19846
2 *378:4 *378:23 8.76079
3 *378:4 *378:3 26.9118
4 *378:3 *378:6 2.15936
5 *378:27 *378:28 250.91
6 *378:26 *378:27 786.651
7 *378:25 *378:26 786.651
8 *378:24 *378:25 786.651
9 *378:5 *378:24 786.651
10 *378:6 *378:5 786.676
11 *378:13 *994:PAD 3.88926
12 *378:29 *378:28 8.76079
13 *378:12 *378:13 0.0801725
14 *378:19 *378:29 106.214
15 *378:11 *378:12 32.4209
16 *378:20 *378:19 8.76079
17 *378:10 *378:11 0.59663
18 *378:20 *378:21 16.118
19 *378:10 *378:18 0.291119
20 *378:22 *378:21 8.76079
21 *378:9 *378:17 0.262997
22 *378:17 *378:18 0.59663
23 *378:14 *378:22 0.701341
24 *378:8 *378:16 0.262997
25 *378:16 *378:17 2.16491
26 *378:15 *378:14 8.76079
27 *378:15 *378:16 2.16491
28 *378:7 *378:15 1.01219
29 *994:PAD *378 0.00653203
*END

*D_NET *379 0.317867

*CONN
*P *379 I *C 706 1949.29 *L 0
*I *993:PAD B *C 706 1949.29 *L 0 *D PADDI
*I *926:A0 I *C 1781.1801 1327.175 *L 0.000211 *D AOI22XL

*CAP
1 *993:PAD 0.00258319
2 *926:A0 1.99374e-05
3 *379:3 0.000428653
4 *379:4 0.000428653
5 *379:5 0.02840424
6 *379:6 0.0148273
7 *379:7 0.0136033
8 *379:8 0.00473859
9 *379:9 0.0120474
10 *379:10 0.0144936
11 *379:11 0.0149526
12 *379:12 0.0100666
13 *379:13 0.00998342
14 *379:14 0.00779031
15 *379:18 0.0111038
16 *379:19 0.0110982
17 *379:20 0.00261656
18 *379:21 3.85745e-05
19 *379:22 1.82037e-05
20 *379:23 1.60366e-05
21 *379:24 3.85745e-05
22 *379:25 3.25066e-05
23 *379:26 1.82037e-05
24 *379:27 1.82037e-05
25 *379:28 1.82037e-05
26 *379:8 *381:9 0.00522343
27 *379:9 *381:10 0.00522343
28 *379:9 *381:10 0.00798022
29 *379:10 *381:11 0.00798022
30 *379:10 *381:11 0.00802806
31 *379:11 *381:12 0.00802806
32 *379:11 *381:12 0.00782787
33 *379:12 *381:13 0.00782787
34 *379:12 *381:13 0.0025529
35 *379:13 *381:14 0.0025529
36 *379:13 *381:13 0.00227457
37 *379:14 *381:14 0.00227457
38 *379:13 *381:14 0.00573271
39 *379:14 *381:15 0.00573270976
40 *379:8 *382:8 0.00522343
41 *379:9 *382:9 0.00522343
42 *379:9 *382:9 0.00798022
43 *379:10 *382:10 0.00798022
44 *379:10 *382:10 0.00802806
45 *379:11 *382:15 0.00802806
46 *379:11 *382:15 0.00782787
47 *379:12 *382:5 0.00782787
48 *379:12 *382:5 0.0025529
49 *379:13 *382:6 0.0025529
50 *379:13 *382:5 0.00449772
51 *379:14 *382:6 0.00449772
52 *379:13 *382:6 0.00351163
53 *379:14 *382:7 0.00351163003

*RES
1 *379:20 *993:PAD 3.82446
2 *379:19 *379:20 0.0803941
3 *379:25 *926:A0 1.22601
4 *379:18 *379:19 32.0055
5 *379:4 *379:25 8.76009
6 *379:14 *379:18 0.597214
7 *379:4 *379:3 35.2901
8 *379:9 *379:8 52.7156
9 *379:10 *379:9 80.8191
10 *379:11 *379:10 80.8191
11 *379:12 *379:11 80.8191
12 *379:13 *379:12 25.7003
13 *379:14 *379:13 80.8191
14 *379:26 *379:3 8.76009
15 *379:16 *379:26 1.01354
16 *379:7 *379:8 0.597214
17 *379:27 *379:26 8.76009
18 *379:17 *379:27 1.01354
19 *379:5 *379:7 187.387
20 *379:6 *379:5 188.168198
21 *379:28 *379:27 8.76009
22 *379:21 *379:6 2.1649
23 *379:22 *379:28 0.703449
24 *379:21 *379:24 0.335933
25 *379:23 *379:22 8.76009
26 *379:23 *379:24 2.1649
27 *379:15 *379:23 1.01354
28 *993:PAD *379 0.00574244
*END

*D_NET *380 0.266683

*CONN
*P *380 I *C 644 1949.29 *L 0
*I *992:PAD B *C 644 1949.29 *L 0 *D PADDI
*I *921:A0 I *C 1781.58 1267.085 *L 0.000211 *D AOI22XL

*CAP
1 *992:PAD 0.00258291
2 *921:A0 2.27584e-05
3 *380:3 0.000878408
4 *380:4 0.000878408
5 *380:5 0.0105025
6 *380:6 0.0105198
7 *380:7 0.000116849
8 *380:8 0.00010564
9 *380:9 0.000493892
10 *380:10 0.000493892
11 *380:11 0.0073092
12 *380:12 0.0182462
13 *380:13 0.0217363
14 *380:14 0.0200393
15 *380:15 0.010031
16 *380:16 0.00235533
17 *380:17 0.0123633
18 *380:18 0.02226081
19 *380:19 0.0149584
20 *380:20 0.0152763
21 *380:21 0.0118853
22 *380:25 0.0026162
23 *380:26 1.80029e-05
24 *380:27 1.86823e-05
25 *380:28 1.86823e-05
26 *380:29 1.80029e-05
27 *380:30 1.63046e-05
28 *380:31 0.000137909
29 *380:32 0.000137909
30 *380:11 *381:9 0.00437182
31 *380:12 *381:10 0.00437182
32 *380:12 *381:10 0.00656743
33 *380:13 *381:11 0.00656743
34 *380:14 *381:36 0.00017043
35 *380:15 *381:35 0.00017043
36 *380:16 *381:3 0.00063294
37 *380:17 *381:4 0.00063294
38 *380:16 *381:4 0.0001518
39 *380:17 *381:5 0.0001518
40 *380:17 *381:4 0.00325929
41 *380:14 *381:5 0.00325929
42 *380:17 *381:5 0.0001518
43 *380:14 *381:6 0.0001518
44 *380:14 *381:5 0.00325917
45 *380:15 *381:6 0.00325917
46 *380:13 *381:11 0.00661651
47 *380:18 *381:12 0.00661651
48 *380:18 *381:12 0.00641147
49 *380:19 *381:13 0.00641147
50 *380:19 *381:13 0.00213381
51 *380:20 *381:14 0.00213381
52 *380:20 *381:13 0.00184601
53 *380:21 *381:14 0.00184601
54 *380:20 *381:14 0.00474989
55 *380:21 *381:15 0.00474988952

*RES
1 *992:PAD *380:25 3.82403
2 *380:5 *380:25 0.0803247
3 *380:6 *380:5 30.248
4 *380:9 *380:6 0.11475
5 *380:10 *380:9 1.27659
6 *380:10 *380:7 0.11475
7 *380:8 *380:7 0.212287
8 *380:21 *380:8 0.596697
9 *380:12 *380:11 53.9524
10 *380:13 *380:12 80.821
11 *380:18 *380:13 80.821
12 *380:19 *380:18 80.821
13 *380:20 *380:19 26.0654
14 *380:21 *380:20 80.821
15 *380:16 *380:11 0.596697
16 *380:17 *380:16 43.8544
17 *380:14 *380:17 188.0056
18 *380:15 *380:14 188.0056
19 *380:32 *380:15 2.1659
20 *380:31 *380:32 1.50609
21 *380:24 *380:30 1.01266
22 *380:30 *380:31 2.1659
23 *380:23 *380:29 1.01266
24 *380:29 *380:30 8.76113
25 *380:3 *380:29 8.76113
26 *380:4 *380:3 62.6991
27 *380:28 *380:4 8.76113
28 *380:27 *380:28 0.699972
29 *380:26 *921:A0 8.76113
30 *380:26 *380:27 8.76113
31 *380:22 *380:26 1.01266
32 *992:PAD *380 0.00573748
*END

*D_NET *381 0.327116

*CONN
*P *381 I *C 582 1949.29 *L 0
*I *991:PAD B *C 582 1949.29 *L 0 *D PADDI
*I *922:A0 I *C 1781.58 1200.635 *L 0.000211 *D AOI22XL

*CAP
1 *991:PAD 0.0025831
2 *922:A0 2.25619e-05
3 *381:3 0.00147973
4 *381:4 0.00933103
5 *381:5 0.01572974
6 *381:6 0.00787963
7 *381:7 0.0037028
8 *381:8 0.0037016
9 *381:9 0.00501619
10 *381:10 0.0125173
11 *381:11 0.0148693
12 *381:12 0.0153555
13 *381:13 0.0124275
14 *381:14 0.0137208
15 *381:15 0.00938672
16 *381:20 0.000563088
17 *381:21 0.000574369
18 *381:22 9.64882e-05
19 *381:23 7.92067e-05
20 *381:24 0.00261622
21 *381:25 0.00828407
22 *381:26 0.00828407
23 *381:27 1.80015e-05
24 *381:28 1.87216e-05
25 *381:29 1.87216e-05
26 *381:30 1.80015e-05
27 *381:31 1.80015e-05
28 *381:32 1.63214e-05
29 *381:33 7.84867e-05
30 *381:34 7.84867e-05
31 *381:35 0.000677098
32 *381:36 0.000677098
33 *381:9 *380:11 0.00437182
34 *381:10 *380:12 0.00437182
35 *381:10 *380:12 0.00656743
36 *381:11 *380:13 0.00656743
37 *381:36 *380:14 0.00017043
38 *381:35 *380:15 0.00017043
39 *381:3 *380:16 0.00063294
40 *381:4 *380:17 0.00063294
41 *381:4 *380:16 0.0001518
42 *381:5 *380:17 0.0001518
43 *381:4 *380:17 0.00325929
44 *381:5 *380:14 0.00325929
45 *381:5 *380:17 0.0001518
46 *381:6 *380:14 0.0001518
47 *381:5 *380:14 0.00325917
48 *381:6 *380:15 0.00325917
49 *381:11 *380:13 0.00661651
50 *381:12 *380:18 0.00661651
51 *381:12 *380:18 0.00641147
52 *381:13 *380:19 0.00641147
53 *381:13 *380:19 0.00213381
54 *381:14 *380:20 0.00213381
55 *381:13 *380:20 0.00184601
56 *381:14 *380:21 0.00184601
57 *381:14 *380:20 0.00474989
58 *381:15 *380:21 0.00474988952
59 *381:9 *379:8 0.00522343
60 *381:10 *379:9 0.00522343
61 *381:10 *379:9 0.00798022
62 *381:11 *379:10 0.00798022
63 *381:11 *379:10 0.00802806
64 *381:12 *379:11 0.00802806
65 *381:12 *379:11 0.00782787
66 *381:13 *379:12 0.00782787
67 *381:13 *379:12 0.0025529
68 *381:14 *379:13 0.0025529
69 *381:13 *379:13 0.00227457
70 *381:14 *379:14 0.00227457
71 *381:14 *379:13 0.00573271
72 *381:15 *379:14 0.00573270976
73 *381:3 *382:13 0.00061542
74 *381:4 *382:14 0.00061542
75 *381:4 *382:14 0.00341109
76 *381:5 *382:11 0.00341109
77 *381:5 *382:11 0.00341096
78 *381:6 *382:12 0.00341096
79 *381:7 *382:33 0.00125816
80 *381:8 *382:32 0.00125815986

*RES
1 *991:PAD *381:24 3.82403
2 *381:23 *381:24 0.0803247
3 *381:22 *381:23 0.197943
4 *381:22 *381:26 0.11475
5 *381:25 *381:26 29.9668
6 *381:21 *381:25 0.11475
7 *381:20 *381:21 1.66961
8 *381:15 *381:20 0.596697
9 *381:10 *381:9 53.6626
10 *381:11 *381:10 80.8238
11 *381:12 *381:11 80.8238
12 *381:13 *381:12 80.8238
13 *381:14 *381:13 48.6136
14 *381:15 *381:14 80.8238
15 *381:3 *381:9 0.596697
16 *381:4 *381:3 34.8523
17 *381:5 *381:4 188.0056
18 *381:6 *381:5 188.0056
19 *381:6 *381:36 0.278268
20 *381:35 *381:36 10.3762
21 *381:7 *381:35 0.278268
22 *381:8 *381:7 68.8354
23 *381:34 *381:8 2.1659
24 *381:33 *381:34 0.84054
25 *381:19 *381:32 1.01266
26 *381:32 *381:33 2.1659
27 *381:18 *381:31 1.01266
28 *381:31 *381:32 8.76113
29 *381:17 *381:30 1.01266
30 *381:30 *381:31 8.76113
31 *381:29 *381:30 8.76113
32 *381:28 *381:29 0.702841
33 *381:27 *922:A0 8.76113
34 *381:27 *381:28 8.76113
35 *381:16 *381:27 1.01553
36 *991:PAD *381 0.00573748
*END

*D_NET *382 0.404557

*CONN
*P *382 I *C 520 1949.29 *L 0
*I *990:PAD B *C 520 1949.29 *L 0 *D PADDI
*I *924:A0 I *C 1781.58 1139.075 *L 0.000211 *D AOI22XL

*CAP
1 *990:PAD 0.000217642
2 *924:A0 2.24427e-05
3 *382:3 0.000836122
4 *382:4 0.000836122
5 *382:5 0.0140395
6 *382:6 0.0157454
7 *382:7 0.00947135
8 *382:8 0.00478108
9 *382:9 0.0120489
10 *382:10 0.0144343
11 *382:11 0.01710214
12 *382:12 0.00925188
13 *382:13 0.0014319
14 *382:14 0.00928346
15 *382:15 0.0148258
16 *382:20 0.00262763
17 *382:21 0.00891837
18 *382:22 0.00891263
19 *382:23 0.00244313
20 *382:24 1.80064e-05
21 *382:25 1.87893e-05
22 *382:26 1.87893e-05
23 *382:27 1.80064e-05
24 *382:28 1.80064e-05
25 *382:29 1.61796e-05
26 *382:30 2.60962e-05
27 *382:31 2.60962e-05
28 *382:32 0.00746142
29 *382:33 0.00746273
30 *382:8 *379:8 0.00522343
31 *382:9 *379:9 0.00522343
32 *382:9 *379:9 0.00798022
33 *382:10 *379:10 0.00798022
34 *382:10 *379:10 0.00802806
35 *382:15 *379:11 0.00802806
36 *382:15 *379:11 0.00782787
37 *382:5 *379:12 0.00782787
38 *382:5 *379:12 0.0025529
39 *382:6 *379:13 0.0025529
40 *382:5 *379:13 0.00449772
41 *382:6 *379:14 0.00449772
42 *382:6 *379:13 0.00351163
43 *382:7 *379:14 0.00351163003
44 *382:8 *377:38 2.555e-05
45 *382:9 *377:29 2.555e-05
46 *382:8 *377:9 0.00917324
47 *382:9 *377:10 0.00917324
48 *382:9 *377:10 0.0141537
49 *382:10 *377:11 0.0141537
50 *382:8 *377:28 6.339e-05
51 *382:9 *377:24 6.339e-05
52 *382:11 *377:5 0.00039488
53 *382:12 *377:6 0.00039488
54 *382:13 *377:37 0.00060958
55 *382:14 *377:36 0.00060958
56 *382:14 *377:37 0.0005768
57 *382:11 *377:36 0.0005768
58 *382:14 *377:36 0.00283429
59 *382:11 *377:35 0.00283429
60 *382:11 *377:36 0.0005768
61 *382:12 *377:35 0.0005768
62 *382:11 *377:7 5.84e-06
63 *382:12 *377:8 5.84e-06
64 *382:10 *377:11 0.014195
65 *382:15 *377:12 0.014195
66 *382:15 *377:12 0.0140289
67 *382:5 *377:13 0.0140289
68 *382:5 *377:13 0.00689161
69 *382:6 *377:14 0.00689156966
70 *382:13 *381:3 0.00061542
71 *382:14 *381:4 0.00061542
72 *382:14 *381:4 0.00341109
73 *382:11 *381:5 0.00341109
74 *382:11 *381:5 0.00341096
75 *382:12 *381:6 0.00341096
76 *382:33 *381:7 0.00125816
77 *382:32 *381:8 0.00125815986
78 *382:11 *355:5 0.00051006
79 *382:12 *355:6 0.000510060004
80 *382:5 *383:28 0.00258971
81 *382:6 *383:18 0.00258971
82 *382:6 *383:28 0.0007878
83 *382:7 *383:18 0.0007878
84 *382:6 *383:18 0.00538695
85 *382:7 *383:17 0.0053869499

*RES
1 *382:20 *382:23 3.56584
2 *990:PAD *382:20 0.321299
3 *382:22 *382:23 0.0803247
4 *382:21 *382:22 32.061
5 *382:7 *382:21 0.596697
6 *382:9 *382:8 53.545
7 *382:10 *382:9 80.8238
8 *382:15 *382:10 80.8238
9 *382:5 *382:15 80.8238
10 *382:6 *382:5 70.984
11 *382:7 *382:6 80.8238
12 *382:13 *382:8 0.596697
13 *382:14 *382:13 33.8884
14 *382:11 *382:14 188.0056
15 *382:12 *382:11 188.0056
16 *382:3 *382:12 0.278268
17 *382:4 *382:3 10.4824
18 *382:4 *382:33 0.278268
19 *382:32 *382:33 120.57
20 *382:31 *382:32 2.1659
21 *382:30 *382:31 0.166387
22 *382:19 *382:29 1.01266
23 *382:29 *382:30 2.1659
24 *382:18 *382:28 1.01266
25 *382:28 *382:29 8.76113
26 *382:17 *382:27 1.01266
27 *382:27 *382:28 8.76113
28 *382:26 *382:27 8.76113
29 *382:25 *382:26 0.699972
30 *382:24 *924:A0 8.76113
31 *382:24 *382:25 8.76113
32 *382:16 *382:24 1.01266
33 *990:PAD *382 0.00573748
*END

*D_NET *383 0.321656

*CONN
*P *383 I *C 458 1949.29 *L 0
*I *989:PAD B *C 458 1949.29 *L 0 *D PADDI
*I *923:A0 I *C 1780.98 1080.9351 *L 0.000211 *D AOI22XL

*CAP
1 *989:PAD 0.00262739
2 *923:A0 2.27907e-05
3 *383:3 3.63971e-05
4 *383:4 4.01388e-05
5 *383:5 3.33356e-05
6 *383:6 2.92537e-05
7 *383:7 7.78965e-05
8 *383:8 7.78965e-05
9 *383:9 0.0125655
10 *383:10 0.02229235
11 *383:11 0.0205395
12 *383:12 0.0100221
13 *383:13 0.0164158
14 *383:14 0.0218576
15 *383:15 0.0213607
16 *383:16 0.0185965
17 *383:17 0.0148235
18 *383:18 0.0182145
19 *383:23 0.00229063
20 *383:24 0.00888905
21 *383:25 0.00888326
22 *383:26 0.00266073
23 *383:27 0.0051694
24 *383:28 0.00561229
25 *383:29 0.0078468
26 *383:30 3.46963e-05
27 *383:31 0.000813321
28 *383:32 0.000813321
29 *383:33 1.80285e-05
30 *383:34 1.63277e-05
31 *383:35 2.72128e-05
32 *383:36 0.000816383
33 *383:37 4.01388e-05
34 *383:38 1.80285e-05
35 *383:37 *377:9 2.555e-05
36 *383:30 *377:10 2.555e-05
37 *383:29 *377:9 0.00485626
38 *383:16 *377:10 0.00485626
39 *383:16 *377:10 0.00798022
40 *383:15 *377:11 0.00798022
41 *383:15 *377:11 0.00802806
42 *383:14 *377:12 0.00802806
43 *383:14 *377:12 0.00782787
44 *383:13 *377:13 0.00782787
45 *383:13 *377:13 0.00389759
46 *383:27 *377:14 0.00389759018
47 *383:9 *385:30 0.00097718
48 *383:10 *385:29 0.00097718
49 *383:10 *385:30 0.00030359
50 *383:11 *385:29 0.00030359
51 *383:10 *385:29 0.00296186
52 *383:11 *385:28 0.00296186
53 *383:11 *385:29 0.00030359
54 *383:12 *385:28 0.00030359
55 *383:11 *385:28 0.00311063
56 *383:12 *385:27 0.00311063001
57 *383:28 *382:5 0.00258971
58 *383:18 *382:6 0.00258971
59 *383:28 *382:6 0.0007878
60 *383:18 *382:7 0.0007878
61 *383:18 *382:6 0.00538695
62 *383:17 *382:7 0.0053869499

*RES
1 *989:PAD *383:26 3.8883
2 *383:25 *383:26 0.0801712
3 *383:24 *383:25 32.2059
4 *383:23 *383:24 0.595558
5 *383:38 *923:A0 8.76157
6 *383:22 *383:38 1.01646
7 *383:18 *383:28 41.4943
8 *383:17 *383:18 80.8613
9 *383:23 *383:17 12.7157
10 *383:3 *383:38 8.76157
11 *383:27 *383:28 0.105941
12 *383:4 *383:3 1.41731
13 *383:16 *383:29 51.9853
14 *383:15 *383:16 80.8183
15 *383:14 *383:15 80.8183
16 *383:13 *383:14 80.8183
17 *383:27 *383:13 39.3755
18 *383:4 *383:7 1.01646
19 *383:29 *383:30 0.105941
20 *383:8 *383:7 6.27912
21 *383:30 *383:37 0.146026
22 *383:5 *383:8 1.01646
23 *383:36 *383:37 0.595558
24 *383:6 *383:5 1.41731
25 *383:9 *383:36 12.3922
26 *383:10 *383:9 187.646469
27 *383:11 *383:10 187.646469
28 *383:12 *383:11 187.646469
29 *383:31 *383:6 8.76157
30 *383:21 *383:35 0.0544019
31 *383:35 *383:12 2.16462
32 *383:31 *383:32 57.4169
33 *383:20 *383:34 1.01359
34 *383:34 *383:35 2.16462
35 *383:33 *383:32 8.76157
36 *383:33 *383:34 8.76157
37 *383:19 *383:33 0.214744
38 *989:PAD *383 0.00572652
*END

*D_NET *384 0.281317

*CONN
*P *384 I *C 396 1949.29 *L 0
*I *988:PAD B *C 396 1949.29 *L 0 *D PADDI
*I *915:B0 I *C 1777.1 1019.255 *L 0.000211 *D AOI22XL

*CAP
1 *988:PAD 0.00262767
2 *915:B0 2.28684e-05
3 *384:3 2.7706e-05
4 *384:4 2.7706e-05
5 *384:5 0.0202095
6 *384:6 0.0281172
7 *384:7 0.0288208
8 *384:8 0.0288208
9 *384:9 0.0285574
10 *384:10 0.0234903
11 *384:15 0.00620394
12 *384:16 0.00948072
13 *384:17 0.00947456
14 *384:18 0.00266065
15 *384:19 0.000225606
16 *384:20 0.000225606
17 *384:21 1.80309e-05
18 *384:22 1.80309e-05
19 *384:23 1.62718e-05
20 *384:24 2.72662e-05
21 *384:25 0.00129251
22 *384:26 1.80309e-05
23 *384:27 1.80309e-05
24 *384:28 0.00129382
25 *384:29 0.0121818
26 *384:30 0.0247775
27 *384:31 0.0251931
28 *384:32 0.015529
29 *384:33 0.0029597
30 *384:34 0.00898113

*RES
1 *988:PAD *384:18 3.89017
2 *384:17 *384:18 0.0799154
3 *384:16 *384:17 34.355
4 *384:15 *384:16 0.596511
5 *384:10 *384:34 52.1876
6 *384:9 *384:10 81.6992
7 *384:8 *384:9 81.6992
8 *384:7 *384:8 81.6992
9 *384:6 *384:7 81.6992
10 *384:5 *384:6 81.6992
11 *384:15 *384:5 35.6423
12 *384:33 *384:34 0.596511
13 *384:32 *384:33 45.2949
14 *384:31 *384:32 187.047653
15 *384:30 *384:31 187.047653
16 *384:29 *384:30 187.047653
17 *384:20 *384:29 0.27685
18 *384:4 *915:B0 8.76215
19 *384:19 *384:20 3.12812
20 *384:4 *384:3 2.31184
21 *384:19 *384:28 0.27685
22 *384:26 *384:3 8.76215
23 *384:14 *384:26 1.01321
24 *384:25 *384:28 19.585
25 *384:27 *384:26 8.76215
26 *384:13 *384:24 0.262579
27 *384:24 *384:25 2.16628
28 *384:21 *384:27 0.667864
29 *384:12 *384:23 1.01321
30 *384:23 *384:24 2.16628
31 *384:22 *384:21 8.76215
32 *384:22 *384:23 8.76215
33 *384:11 *384:22 1.01321
34 *988:PAD *384 0.00570824
*END

*D_NET *385 0.301877

*CONN
*P *385 I *C 80.71 1636 *L 0
*I *987:PAD B *C 80.71 1636 *L 0 *D PADDI
*I *912:B0 I *C 1780.1 954.275 *L 0.000211 *D AOI22XL

*CAP
1 *987:PAD 0.00194411
2 *912:B0 2.24727e-05
3 *385:3 6.74182e-05
4 *385:4 6.74182e-05
5 *385:5 0.0060152
6 *385:6 0.0060152
7 *385:7 4.27423e-05
8 *385:8 4.27423e-05
9 *385:9 0.0281513
10 *385:10 0.0280539
11 *385:11 0.0281174
12 *385:12 0.0288206
13 *385:13 0.0288206
14 *385:14 0.02887746
15 *385:15 0.0239991
16 *385:19 2.99636e-05
17 *385:20 0.00198157
18 *385:21 0.0142724
19 *385:22 3.5692e-05
20 *385:23 1.8507e-05
21 *385:24 1.8507e-05
22 *385:25 1.63037e-05
23 *385:26 2.73198e-05
24 *385:27 0.0102141
25 *385:28 0.0217082
26 *385:29 0.0157538
27 *385:30 0.00426012
28 *385:31 0.00916976
29 *385:30 *383:9 0.00097718
30 *385:29 *383:10 0.00097718
31 *385:30 *383:10 0.00030359
32 *385:29 *383:11 0.00030359
33 *385:29 *383:10 0.00296186
34 *385:28 *383:11 0.00296186
35 *385:29 *383:11 0.00030359
36 *385:28 *383:12 0.00030359
37 *385:28 *383:11 0.00311063
38 *385:27 *383:12 0.00311063001

*RES
1 *385:8 *912:B0 8.76079
2 *385:8 *385:7 2.18804
3 *385:3 *385:7 8.76079
4 *385:4 *385:3 3.51615
5 *385:6 *385:4 8.76079
6 *385:6 *385:5 431.837
7 *385:23 *385:5 8.76079
8 *385:23 *385:24 0.702026
9 *385:25 *385:24 8.76079
10 *385:17 *385:25 0.214118
11 *385:26 *385:25 2.16491
12 *385:18 *385:26 0.263733
13 *385:27 *385:26 2.16491
14 *385:29 *385:30 70.3044
15 *385:28 *385:29 186.956
16 *385:27 *385:28 186.956
17 *385:31 *385:30 0.59663
18 *385:15 *385:31 53.0023
19 *385:14 *385:15 81.7107
20 *385:13 *385:14 81.7107
21 *385:12 *385:13 81.7107
22 *385:11 *385:12 81.7107
23 *385:10 *385:11 81.7107
24 *385:9 *385:10 81.343
25 *385:21 *385:9 81.7107
26 *385:22 *385:21 0.59663
27 *385:20 *987:PAD 3.82004
28 *385:19 *385:22 0.017922
29 *385:19 *385:20 0.0801725
30 *385:16 *385:19 0.0570675
31 *987:PAD *385 0.00653203
*END

*D_NET *386 0.306302

*CONN
*P *386 I *C 80.71 1574 *L 0
*I *986:PAD B *C 80.71 1574 *L 0 *D PADDI
*I *913:B0 I *C 1781.1 892.715 *L 0.000211 *D AOI22XL

*CAP
1 *986:PAD 0.00192167
2 *913:B0 2.0594e-05
3 *386:3 0.000451351
4 *386:4 0.000451351
5 *386:5 2.66005e-05
6 *386:6 3.132e-05
7 *386:7 3.1749e-05
8 *386:8 2.70296e-05
9 *386:9 0.0224393
10 *386:10 0.0110817
11 *386:11 0.0195467
12 *386:12 0.02811718
13 *386:13 0.0266177
14 *386:14 0.023369
15 *386:15 0.0224834
16 *386:16 0.0166498
17 *386:17 0.0227688
18 *386:21 0.0142725
19 *386:22 6.52142e-05
20 *386:23 5.96367e-05
21 *386:24 0.001959
22 *386:25 0.00866619
23 *386:26 0.000278876
24 *386:27 0.00554106
25 *386:28 0.000278876
26 *386:29 0.00206883
27 *386:30 1.63035e-05
28 *386:31 2.70296e-05
29 *386:32 2.61715e-05
30 *386:33 0.00496572
31 *386:34 0.000527291
32 *386:35 0.000527291
33 *386:36 2.91748e-05
34 *386:37 0.0157342
35 *386:38 0.00438136
36 *386:39 0.00493011
37 *386:40 0.00492539
38 *386:41 0.00206883
39 *386:42 3.34652e-05
40 *386:43 2.91748e-05
41 *386:33 *351:3 0.00303538
42 *386:16 *351:4 0.00303538
43 *386:16 *351:4 0.00633401
44 *386:15 *351:5 0.00633401
45 *386:15 *351:5 0.00346603
46 *386:14 *351:6 0.00346603
47 *386:15 *351:6 0.00315048
48 *386:14 *351:7 0.00315048
49 *386:14 *351:6 0.00344194
50 *386:13 *351:7 0.0034419398

*RES
1 *913:B0 *386:42 1.21712
2 *386:8 *386:42 8.76079
3 *386:8 *386:7 1.34592
4 *386:7 *386:4 1.07142
5 *386:4 *386:3 31.6261
6 *386:6 *386:3 1.07122
7 *386:6 *386:5 1.34567
8 *386:24 *986:PAD 3.76994
9 *386:43 *386:5 8.76079
10 *386:23 *386:24 0.0801725
11 *386:36 *386:43 1.4027
12 *386:22 *386:23 0.125454
13 *386:10 *386:36 8.76079
14 *386:21 *386:22 0.59663
15 *386:37 *386:38 314.239
16 *386:9 *386:37 780.874
17 *386:10 *386:9 782.455
18 *386:17 *386:25 49.1115
19 *386:21 *386:17 80.9751
20 *386:34 *386:38 1.07161
21 *386:26 *386:25 0.59663
22 *386:34 *386:35 37.8762
23 *386:26 *386:28 0.878719
24 *386:35 *386:39 1.07161
25 *386:27 *386:28 0.59663
26 *386:39 *386:40 353.649
27 *386:16 *386:33 38.1534
28 *386:15 *386:16 83.1669
29 *386:14 *386:15 83.1669
30 *386:13 *386:14 83.1669
31 *386:12 *386:13 83.1669
32 *386:11 *386:12 83.1669
33 *386:27 *386:11 32.3518
34 *386:41 *386:40 8.76079
35 *386:20 *386:32 0.250399
36 *386:32 *386:33 0.59663
37 *386:29 *386:41 155.434
38 *386:19 *386:31 0.250399
39 *386:31 *386:32 2.16491
40 *386:30 *386:29 8.76079
41 *386:30 *386:31 2.16491
42 *386:18 *386:30 1.02178
43 *986:PAD *386 0.00653203
*END

*D_NET *387 0.306629

*CONN
*P *387 I *C 80.71 1512 *L 0
*I *985:PAD B *C 80.71 1512 *L 0 *D PADDI
*I *917:B0 I *C 1780.7 831.155 *L 0.000211 *D AOI22XL

*CAP
1 *985:PAD 0.00197496
2 *917:B0 1.14567e-05
3 *387:3 4.803e-05
4 *387:4 4.803e-05
5 *387:5 2.20321e-05
6 *387:6 2.20321e-05
7 *387:7 2.02695e-05
8 *387:8 2.02695e-05
9 *387:9 0.0168629
10 *387:10 0.0168501
11 *387:11 0.0281174
12 *387:12 0.0284919
13 *387:13 0.0284919
14 *387:14 0.02887746
15 *387:15 0.0240912
16 *387:19 0.0180597
17 *387:20 0.0141882
18 *387:21 0.000140565
19 *387:22 0.000134836
20 *387:23 0.0161182
21 *387:24 0.00212081
22 *387:25 0.00212081
23 *387:26 1.80663e-05
24 *387:27 1.63037e-05
25 *387:28 2.73198e-05
26 *387:29 0.00414952
27 *387:30 0.00415085
28 *387:31 0.0121833
29 *387:32 0.0244481
30 *387:33 0.0183796
31 *387:34 0.00611302
32 *387:35 0.00926185
33 *387:36 2.82011e-05
34 *387:33 *355:5 0.00051006
35 *387:32 *355:6 0.000510060004

*RES
1 *387:19 *985:PAD 3.88243
2 *387:19 *387:23 23.4029
3 *387:22 *387:23 0.0798149
4 *387:21 *387:22 0.299306
5 *387:20 *387:21 0.595761
6 *387:15 *387:35 54.4708
7 *387:14 *387:15 83.1672
8 *387:13 *387:14 83.1672
9 *387:12 *387:13 83.1672
10 *387:11 *387:12 83.1672
11 *387:10 *387:11 83.1672
12 *387:9 *387:10 16.3621
13 *387:20 *387:9 83.1672
14 *387:34 *387:35 0.595761
15 *917:B0 *387:36 0.612865
16 *387:33 *387:34 79.0339
17 *387:32 *387:33 186.812546
18 *387:31 *387:32 186.812546
19 *387:4 *387:36 8.75969
20 *387:25 *387:31 0.279352
21 *387:4 *387:3 2.4087
22 *387:24 *387:25 29.2778
23 *387:5 *387:3 8.75969
24 *387:24 *387:30 0.279352
25 *387:6 *387:5 0.704082
26 *387:29 *387:30 62.6034
27 *387:7 *387:6 8.75969
28 *387:18 *387:28 0.2651
29 *387:28 *387:29 2.16355
30 *387:8 *387:7 0.729737
31 *387:17 *387:27 1.01194
32 *387:27 *387:28 2.16355
33 *387:26 *387:8 8.75969
34 *387:26 *387:27 8.75969
35 *387:16 *387:26 1.01194
36 *985:PAD *387 0.00570107
*END

*D_NET *388 0.207114

*CONN
*P *388 I *C 80.71 1450 *L 0
*I *984:PAD B *C 80.71 1450 *L 0 *D PADDI
*I *916:B0 I *C 1636.7 1448.465 *L 0.000211 *D AOI22XL

*CAP
1 *984:PAD 0.00191062
2 *916:B0 2.24727e-05
3 *388:3 0.0281724
4 *388:4 0.0280226
5 *388:5 0.0281174
6 *388:6 0.0284919
7 *388:7 0.0284919
8 *388:8 0.02887746
9 *388:9 0.0149479
10 *388:15 3.48107e-05
11 *388:16 0.00194808
12 *388:17 0.0143253
13 *388:18 4.0539e-05
14 *388:19 1.80663e-05
15 *388:20 1.80663e-05
16 *388:21 0.000296552
17 *388:22 0.000296552
18 *388:23 1.80663e-05
19 *388:24 1.63037e-05
20 *388:25 2.73198e-05
21 *388:26 0.00145015
22 *388:27 0.00145015
23 *388:28 0.000118973

*RES
1 *984:PAD *388:16 3.75766
2 *388:15 *388:16 0.079791
3 *388:15 *388:18 0.0361553
4 *388:17 *388:18 0.597186
5 *388:9 *388:28 0.568511
6 *388:8 *388:9 81.705986
7 *388:7 *388:8 81.705986
8 *388:6 *388:7 81.705986
9 *388:5 *388:6 81.705986
10 *388:4 *388:5 81.705986
11 *388:3 *388:4 81.1549
12 *388:17 *388:3 81.705986
13 *388:27 *388:28 0.597186
14 *388:26 *388:27 20.904
15 *388:14 *388:25 0.250594
16 *388:25 *388:26 2.16433
17 *388:13 *388:24 1.02232
18 *388:24 *388:25 2.16433
19 *388:12 *388:23 1.02232
20 *388:23 *388:24 8.7608
21 *388:22 *388:23 8.7608
22 *388:21 *388:22 20.8504
23 *388:11 *388:20 1.02232
24 *388:20 *388:21 8.7608
25 *388:19 *916:B0 8.7608
26 *388:19 *388:20 8.7608
27 *388:10 *388:19 1.02232
28 *984:PAD *388 0.00623367
*END

*D_NET *389 0.205091

*CONN
*P *389 I *C 80.71 1388 *L 0
*I *983:PAD B *C 80.71 1388 *L 0 *D PADDI
*I *914:B0 I *C 1575.1 1385.1949 *L 0.000211 *D AOI22XL

*CAP
1 *983:PAD 0.00165575
2 *914:B0 2.28766e-05
3 *389:3 0.0165139
4 *389:4 0.0165139
5 *389:5 0.0277437
6 *389:6 0.02828716
7 *389:7 0.02828716
8 *389:8 0.0239341
9 *389:13 0.0163141
10 *389:14 0.000363005
11 *389:15 0.00170021
12 *389:16 0.000744569
13 *389:17 0.0160292
14 *389:18 0.000268045
15 *389:19 0.000750612
16 *389:20 0.000803703
17 *389:21 0.000204163
18 *389:22 0.0138852
19 *389:23 0.000803703
20 *389:24 5.99972e-05
21 *389:25 1.7697e-05
22 *389:26 1.7697e-05
23 *389:27 1.64021e-05
24 *389:28 0.0100761
25 *389:29 1.7697e-05
26 *389:30 5.99972e-05

*RES
1 *389:15 *983:PAD 3.25761
2 *389:14 *389:15 0.0648818
3 *389:13 *389:14 0.627191
4 *389:13 *389:17 23.2709
5 *389:16 *389:17 0.0811023
6 *389:16 *389:19 2.57094
7 *389:18 *389:19 0.597453
8 *389:18 *389:21 1.06785
9 *389:20 *389:21 0.597453
10 *389:20 *389:23 11.6895
11 *389:22 *389:23 2.16543
12 *389:29 *914:B0 8.76175
13 *389:12 *389:29 1.02189
14 *389:8 *389:28 128.493
15 *389:7 *389:8 177.170593
16 *389:6 *389:7 177.170593
17 *389:5 *389:6 177.170593
18 *389:4 *389:5 177.170593
19 *389:3 *389:4 33.7412
20 *389:22 *389:3 177.170593
21 *389:30 *389:29 8.76175
22 *389:11 *389:27 1.02189
23 *389:27 *389:28 2.16543
24 *389:24 *389:30 3.53876
25 *389:10 *389:26 1.02189
26 *389:26 *389:27 8.76175
27 *389:25 *389:24 8.76175
28 *389:25 *389:26 8.76175
29 *389:9 *389:25 1.02189
30 *983:PAD *389 0.00540682
*END

*D_NET *390 0.189444

*CONN
*P *390 I *C 80.71 1326 *L 0
*I *982:PAD B *C 80.71 1326 *L 0 *D PADDI
*I *918:B0 I *C 1509.7 1328.765 *L 0.000211 *D AOI22XL

*CAP
1 *982:PAD 0.00193033
2 *918:B0 2.26074e-05
3 *390:3 0.0192628
4 *390:4 0.0281171
5 *390:5 0.0284919
6 *390:6 0.0284919
7 *390:7 0.0202206
8 *390:8 0.0230531
9 *390:14 2.99983e-05
10 *390:15 0.00196772
11 *390:16 0.0142723
12 *390:17 3.56502e-05
13 *390:18 0.0052571
14 *390:19 0.000614314
15 *390:20 0.00894994
16 *390:21 0.000614314
17 *390:22 1.73903e-05
18 *390:23 1.73903e-05
19 *390:24 1.78251e-05
20 *390:25 0.000213032
21 *390:26 0.000213032
22 *390:27 1.78251e-05
23 *390:28 1.60861e-05
24 *390:29 2.6955e-05
25 *390:30 0.000679093
26 *390:31 0.000679093
27 *390:32 0.00621487

*RES
1 *390:22 *918:B0 8.76135
2 *390:22 *390:23 0.672584
3 *390:24 *390:23 8.76135
4 *390:10 *390:24 1.02157
5 *390:25 *390:24 8.76135
6 *390:25 *390:26 14.7968
7 *390:27 *390:26 8.76135
8 *390:11 *390:27 1.02157
9 *390:28 *390:27 8.76135
10 *390:12 *390:28 1.02157
11 *390:29 *390:28 2.16496
12 *390:13 *390:29 0.249998
13 *390:30 *390:29 2.16496
14 *390:30 *390:31 9.69536
15 *390:32 *390:31 0.596442
16 *390:7 *390:32 36.2155
17 *390:6 *390:7 83.1668701
18 *390:5 *390:6 83.1668701
19 *390:4 *390:5 83.1668701
20 *390:3 *390:4 83.1668701
21 *390:18 *390:3 30.6673
22 *390:19 *390:18 0.596442
23 *390:19 *390:21 2.07359
24 *390:20 *390:21 0.596442
25 *982:PAD *390:15 3.79439
26 *390:8 *390:20 50.7509
27 *390:16 *390:8 80.9753
28 *390:14 *390:15 0.0799486
29 *390:17 *390:16 0.596442
30 *390:14 *390:17 0.0177664
31 *390:9 *390:17 0.0253805
32 *982:PAD *390 0.00634513
*END

*D_NET *391 0.189253

*CONN
*P *391 I *C 80.71 1264 *L 0
*I *981:PAD B *C 80.71 1264 *L 0 *D PADDI
*I *911:B0 I *C 1451.5 1267.205 *L 0.000211 *D AOI22XL

*CAP
1 *981:PAD 0.00197689
2 *911:B0 2.28766e-05
3 *391:3 0.0165139
4 *391:4 0.0165139
5 *391:5 0.0277437
6 *391:6 0.02828716
7 *391:7 0.02828716
8 *391:8 0.0157676
9 *391:13 0.0179279
10 *391:14 0.000268045
11 *391:15 0.000681551
12 *391:16 0.000675939
13 *391:17 0.0159843
14 *391:18 0.0138852
15 *391:19 0.000855931
16 *391:20 0.000855931
17 *391:21 0.000204163
18 *391:22 0.000410916
19 *391:23 1.7697e-05
20 *391:24 1.7697e-05
21 *391:25 1.64021e-05
22 *391:26 0.00190912
23 *391:27 1.7697e-05
24 *391:28 0.000410916

*RES
1 *981:PAD *391:13 3.88209
2 *391:13 *391:17 23.2034
3 *391:16 *391:17 0.0811023
4 *391:15 *391:16 2.32493
5 *391:14 *391:15 0.597453
6 *391:14 *391:21 1.06785
7 *391:20 *391:21 0.597453
8 *391:19 *391:20 12.4573
9 *391:18 *391:19 2.16543
10 *391:27 *911:B0 8.76175
11 *391:12 *391:27 1.02189
12 *391:8 *391:26 24.2117
13 *391:7 *391:8 177.170593
14 *391:6 *391:7 177.170593
15 *391:5 *391:6 177.170593
16 *391:4 *391:5 177.170593
17 *391:3 *391:4 33.7412
18 *391:18 *391:3 177.170593
19 *391:28 *391:27 8.76175
20 *391:11 *391:25 1.02189
21 *391:25 *391:26 2.16543
22 *391:22 *391:28 29.0265
23 *391:10 *391:24 1.02189
24 *391:24 *391:25 8.76175
25 *391:23 *391:22 8.76175
26 *391:23 *391:24 8.76175
27 *391:9 *391:23 1.02189
28 *981:PAD *391 0.00540682
*END

*D_NET *392 0.183971

*CONN
*P *392 I *C 80.71 1202 *L 0
*I *980:PAD B *C 80.71 1202 *L 0 *D PADDI
*I *908:A0 I *C 1135.78 701.315 *L 0.000211 *D AOI22XL

*CAP
1 *980:PAD 0.00191223
2 *908:A0 2.27392e-05
3 *392:3 8.10887e-05
4 *392:4 8.10887e-05
5 *392:5 3.1749e-05
6 *392:6 2.70296e-05
7 *392:7 0.00748676
8 *392:8 0.0177486
9 *392:9 0.0196415
10 *392:10 0.02811718
11 *392:11 0.0249213
12 *392:12 0.0226744
13 *392:16 0.0142725
14 *392:17 6.04947e-05
15 *392:18 5.44882e-05
16 *392:19 0.00194956
17 *392:20 0.00563588
18 *392:21 0.000456499
19 *392:22 0.00857138
20 *392:23 0.000456499
21 *392:24 2.61715e-05
22 *392:25 0.00417414
23 *392:26 0.00417414
24 *392:27 0.0109157
25 *392:28 5.79205e-05
26 *392:29 1.80197e-05
27 *392:30 1.80197e-05
28 *392:31 1.63035e-05
29 *392:32 2.61715e-05
30 *392:33 0.0102841
31 *392:34 5.79205e-05

*RES
1 *392:19 *980:PAD 3.75742
2 *392:18 *392:19 0.0801725
3 *392:17 *392:18 0.107532
4 *392:16 *392:17 0.59663
5 *392:12 *392:22 48.565
6 *392:16 *392:12 80.9751
7 *392:23 *392:22 0.59663
8 *392:21 *392:23 1.5114
9 *392:6 *908:A0 8.76079
10 *392:20 *392:21 0.59663
11 *392:6 *392:5 1.35071
12 *392:11 *392:27 62.1302
13 *392:10 *392:11 83.1669
14 *392:9 *392:10 83.1669
15 *392:20 *392:9 32.9132
16 *392:4 *392:5 1.07968
17 *392:26 *392:27 0.59663
18 *392:4 *392:3 5.59355
19 *392:25 *392:26 60.5924
20 *392:3 *392:33 1.07968
21 *392:24 *392:25 2.16491
22 *392:8 *392:7 571.978
23 *392:33 *392:8 786.651
24 *392:24 *392:32 0.159454
25 *392:34 *392:7 8.76079
26 *392:15 *392:31 1.02178
27 *392:31 *392:32 2.16491
28 *392:28 *392:34 3.53993
29 *392:14 *392:30 1.02178
30 *392:30 *392:31 8.76079
31 *392:29 *392:28 8.76079
32 *392:29 *392:30 8.76079
33 *392:13 *392:29 1.02178
34 *980:PAD *392 0.00653203
*END

*D_NET *393 0.107759

*CONN
*P *393 I *C 80.71 1140 *L 0
*I *979:PAD B *C 80.71 1140 *L 0 *D PADDI
*I *909:A0 I *C 583.98 641.225 *L 0.000211 *D AOI22XL

*CAP
1 *979:PAD 0.00194399
2 *909:A0 2.25642e-05
3 *393:3 0.0207139
4 *393:4 0.0104646
5 *393:5 0.00715771
6 *393:6 0.02274992
7 *393:10 0.0142724
8 *393:11 7.53297e-05
9 *393:12 6.94283e-05
10 *393:13 0.00198148
11 *393:14 0.00424415
12 *393:15 1.80514e-05
13 *393:16 1.80514e-05
14 *393:17 1.80514e-05
15 *393:18 1.63157e-05
16 *393:19 2.7077e-05
17 *393:20 0.000148229
18 *393:21 0.000148229
19 *393:22 0.00858342
20 *393:23 0.0112023
21 *393:24 0.000952904
22 *393:25 0.00293126

*RES
1 *393:13 *979:PAD 3.82004
2 *393:12 *393:13 0.0801725
3 *393:11 *393:12 0.161298
4 *393:4 *909:A0 8.76079
5 *393:10 *393:11 0.59663
6 *393:23 *393:24 71.1739
7 *393:3 *393:23 786.651
8 *393:4 *393:3 787.074
9 *393:6 *393:22 49.0025
10 *393:10 *393:6 80.9757
11 *393:25 *393:24 8.76079
12 *393:21 *393:22 0.59663
13 *393:5 *393:25 211.886
14 *393:14 *393:5 307.068
15 *393:20 *393:21 1.96925
16 *393:15 *393:14 8.76079
17 *393:9 *393:19 0.250399
18 *393:19 *393:20 2.16491
19 *393:15 *393:16 0.672587
20 *393:8 *393:18 1.02178
21 *393:18 *393:19 2.16491
22 *393:17 *393:16 8.76079
23 *393:17 *393:18 8.76079
24 *393:7 *393:17 1.02178
25 *979:PAD *393 0.00653203
*END

*D_NET *394 0.150761

*CONN
*P *394 I *C 80.71 1078 *L 0
*I *978:PAD B *C 80.71 1078 *L 0 *D PADDI
*I *905:A0 I *C 1203.78 1078.985 *L 0.000211 *D AOI22XL

*CAP
1 *978:PAD 0.00191294
2 *905:A0 2.26074e-05
3 *394:3 0.0281515
4 *394:4 0.0280541
5 *394:5 0.0281171
6 *394:6 0.0284919
7 *394:7 0.0152848
8 *394:13 0.0142723
9 *394:14 6.52138e-05
10 *394:15 5.95619e-05
11 *394:16 0.00195033
12 *394:17 0.00121993
13 *394:18 0.000841258
14 *394:19 0.000500407
15 *394:20 1.78251e-05
16 *394:21 1.60861e-05
17 *394:22 2.6955e-05
18 *394:23 0.00121993
19 *394:24 1.78251e-05
20 *394:25 1.78251e-05
21 *394:26 0.000500407

*RES
1 *394:16 *978:PAD 3.75772
2 *394:15 *394:16 0.0798453
3 *394:14 *394:15 0.126006
4 *394:13 *394:14 0.596345
5 *394:7 *394:18 4.77949
6 *394:6 *394:7 81.7616272
7 *394:5 *394:6 81.7616272
8 *394:4 *394:5 81.7616272
9 *394:3 *394:4 81.3936
10 *394:13 *394:3 81.7616272
11 *394:24 *905:A0 8.76053
12 *394:11 *394:24 1.02177
13 *394:17 *394:18 0.596345
14 *394:25 *394:24 8.76053
15 *394:12 *394:25 1.02177
16 *394:17 *394:23 17.5722
17 *394:26 *394:25 8.76053
18 *394:10 *394:22 0.250764
19 *394:22 *394:23 2.16456
20 *394:19 *394:26 35.6472
21 *394:9 *394:21 1.02177
22 *394:21 *394:22 2.16456
23 *394:20 *394:19 8.76053
24 *394:20 *394:21 8.76053
25 *394:8 *394:20 1.02177
26 *978:PAD *394 0.00623792
*END

*D_NET *395 0.158545

*CONN
*P *395 I *C 80.71 1016 *L 0
*I *977:PAD B *C 80.71 1016 *L 0 *D PADDI
*I *898:A0 I *C 1203.1801 1019.375 *L 0.000211 *D AOI22XL

*CAP
1 *977:PAD 0.00194365
2 *898:A0 1.98552e-05
3 *395:3 0.0165139
4 *395:4 0.0165139
5 *395:5 0.0277437
6 *395:6 0.02828716
7 *395:7 0.0151763
8 *395:12 0.00203257
9 *395:13 0.000120858
10 *395:14 0.0141939
11 *395:15 0.00173215
12 *395:16 0.0141939
13 *395:17 0.000268045
14 *395:18 0.000213227
15 *395:19 0.000207616
16 *395:20 0.00173344
17 *395:21 0.0138852
18 *395:22 0.00132382
19 *395:23 0.00132382
20 *395:24 0.000204163
21 *395:25 3.28042e-05
22 *395:26 1.7697e-05
23 *395:27 1.85603e-05
24 *395:28 1.85603e-05
25 *395:29 1.7697e-05
26 *395:30 1.7697e-05
27 *395:31 1.64021e-05
28 *395:32 0.000774352

*RES
1 *977:PAD *395:12 3.81992
2 *395:12 *395:13 0.132467
3 *395:13 *395:14 0.0621784
4 *395:14 *395:16 20.9622
5 *395:15 *395:16 0.0621784
6 *395:15 *395:20 2.10866
7 *395:19 *395:20 0.0811023
8 *395:18 *395:19 0.651522
9 *395:17 *395:18 0.597453
10 *395:17 *395:24 1.06785
11 *395:23 *395:24 0.597453
12 *395:22 *395:23 19.3807
13 *395:21 *395:22 2.16543
14 *395:7 *395:32 9.71875
15 *395:6 *395:7 177.170593
16 *395:5 *395:6 177.170593
17 *395:4 *395:5 177.170593
18 *395:3 *395:4 33.7412
19 *395:21 *395:3 177.170593
20 *395:11 *395:31 1.02189
21 *395:31 *395:32 2.16543
22 *395:10 *395:30 1.02189
23 *395:30 *395:31 8.76175
24 *395:9 *395:29 1.02189
25 *395:29 *395:30 8.76175
26 *395:28 *395:29 8.76175
27 *395:25 *898:A0 1.19761
28 *395:27 *395:28 0.708293
29 *395:26 *395:25 8.76175
30 *395:26 *395:27 8.76175
31 *395:8 *395:26 1.02189
32 *977:PAD *395 0.00540682
*END

*D_NET *396 0.143343

*CONN
*P *396 I *C 80.71 954 *L 0
*I *976:PAD B *C 80.71 954 *L 0 *D PADDI
*I *906:A0 I *C 1138.98 952.445 *L 0.000211 *D AOI22XL

*CAP
1 *976:PAD 0.00191223
2 *906:A0 2.27392e-05
3 *396:3 4.33331e-05
4 *396:4 4.33331e-05
5 *396:5 0.0194836
6 *396:6 0.02811718
7 *396:7 0.0251988
8 *396:8 0.0227979
9 *396:13 0.000182771
10 *396:14 0.000182771
11 *396:15 3.99008e-05
12 *396:16 0.000184058
13 *396:17 5.70624e-05
14 *396:18 0.00206326
15 *396:19 0.0142699
16 *396:20 7.67983e-05
17 *396:21 0.00869751
18 *396:22 0.000476235
19 *396:23 0.00547799
20 *396:24 0.000476235
21 *396:25 0.00111593
22 *396:26 0.0111932
23 *396:27 1.80197e-05
24 *396:28 1.80197e-05
25 *396:29 1.80197e-05
26 *396:30 1.67326e-05
27 *396:31 1.67326e-05
28 *396:32 2.70296e-05
29 *396:33 0.00111593

*RES
1 *396:18 *976:PAD 3.75759
2 *396:14 *396:18 0.0659893
3 *396:13 *396:14 0.0621823
4 *396:13 *396:16 0.0659893
5 *396:15 *396:16 0.0799486
6 *396:15 *396:17 0.0532991
7 *396:17 *396:20 0.115481
8 *396:19 *396:20 0.596442
9 *396:8 *396:21 49.294
10 *396:19 *396:8 80.9753
11 *396:22 *396:21 0.596442
12 *396:22 *396:24 1.58121
13 *396:23 *396:24 0.596442
14 *396:7 *396:26 63.7774
15 *396:6 *396:7 83.1668701
16 *396:5 *396:6 83.1668701
17 *396:23 *396:5 31.9769
18 *396:25 *396:26 0.596442
19 *396:25 *396:33 16.057
20 *396:12 *396:32 0.249998
21 *396:32 *396:33 2.16496
22 *396:31 *396:32 2.16496
23 *396:30 *396:31 0.672584
24 *396:3 *906:A0 8.76135
25 *396:11 *396:29 1.02157
26 *396:29 *396:30 8.76135
27 *396:4 *396:3 2.21191
28 *396:10 *396:28 1.02157
29 *396:28 *396:29 8.76135
30 *396:27 *396:4 8.76135
31 *396:27 *396:28 8.76135
32 *396:9 *396:27 1.02157
33 *976:PAD *396 0.00634513
*END

*D_NET *397 0.142151

*CONN
*P *397 I *C 80.71 892 *L 0
*I *975:PAD B *C 80.71 892 *L 0 *D PADDI
*I *899:A0 I *C 1079.78 890.885 *L 0.000211 *D AOI22XL

*CAP
1 *975:PAD 0.00193805
2 *899:A0 2.28604e-05
3 *397:3 0.0165137
4 *397:4 0.0165137
5 *397:5 0.02774364
6 *397:6 0.0202039
7 *397:11 0.00202696
8 *397:12 0.000121075
9 *397:13 0.0141938
10 *397:14 0.00173189
11 *397:15 0.0141938
12 *397:16 0.000267975
13 *397:17 0.000878855
14 *397:18 0.000872929
15 *397:19 0.00173358
16 *397:20 0.0138856
17 *397:21 0.000855572
18 *397:22 0.000855572
19 *397:23 0.00020405
20 *397:24 0.000488959
21 *397:25 1.77803e-05
22 *397:26 1.77803e-05
23 *397:27 1.6087e-05
24 *397:28 0.00634588
25 *397:29 1.77803e-05
26 *397:30 0.000488959

*RES
1 *975:PAD *397:11 3.8064
2 *397:11 *397:12 0.132467
3 *397:12 *397:13 0.0621784
4 *397:13 *397:15 20.9622
5 *397:14 *397:15 0.0621784
6 *397:14 *397:19 2.10866
7 *397:18 *397:19 0.0811023
8 *397:17 *397:18 3.03052
9 *397:16 *397:17 0.597453
10 *397:16 *397:23 1.06785
11 *397:22 *397:23 0.597453
12 *397:21 *397:22 12.4573
13 *397:20 *397:21 2.16543
14 *397:29 *899:A0 8.76175
15 *397:10 *397:29 1.02189
16 *397:6 *397:28 80.8535
17 *397:5 *397:6 177.170593
18 *397:4 *397:5 177.170593
19 *397:3 *397:4 33.7412
20 *397:20 *397:3 177.170593
21 *397:30 *397:29 8.76175
22 *397:9 *397:27 1.02189
23 *397:27 *397:28 2.16543
24 *397:24 *397:30 34.6901
25 *397:8 *397:26 1.02189
26 *397:26 *397:27 8.76175
27 *397:25 *397:24 8.76175
28 *397:25 *397:26 8.76175
29 *397:7 *397:25 1.02189
30 *975:PAD *397 0.00540682
*END

*D_NET *398 0.137208

*CONN
*P *398 I *C 80.71 830 *L 0
*I *974:PAD B *C 80.71 830 *L 0 *D PADDI
*I *907:A0 I *C 765.38 336.845 *L 0.000211 *D AOI22XL

*CAP
1 *974:PAD 0.00194331
2 *907:A0 9.86889e-06
3 *398:3 0.000106841
4 *398:4 0.000102122
5 *398:5 0.0281199
6 *398:6 0.0280225
7 *398:7 0.0152667
8 *398:11 0.0142726
9 *398:12 6.7795e-05
10 *398:13 6.17878e-05
11 *398:14 0.00198064
12 *398:15 5.10608e-05
13 *398:16 0.0076175
14 *398:17 0.0076175
15 *398:18 0.00119757
16 *398:19 4.80572e-05
17 *398:20 1.80215e-05
18 *398:21 1.80215e-05
19 *398:22 1.63051e-05
20 *398:23 5.10608e-05
21 *398:24 2.27414e-05
22 *398:25 0.0107446
23 *398:26 0.0152629
24 *398:27 0.00454098
25 *398:28 4.80572e-05

*RES
1 *398:14 *974:PAD 3.82004
2 *398:13 *398:14 0.0801725
3 *398:12 *398:13 0.107532
4 *398:11 *398:12 0.59663
5 *398:24 *907:A0 0.599202
6 *398:7 *398:18 6.52168
7 *398:6 *398:7 82.1856
8 *398:5 *398:6 81.6309
9 *398:11 *398:5 82.1856
10 *398:4 *398:24 8.76079
11 *398:17 *398:18 0.59663
12 *398:4 *398:3 12.1502
13 *398:16 *398:17 110.733
14 *398:3 *398:25 1.07968
15 *398:15 *398:16 2.16491
16 *398:26 *398:27 345.986
17 *398:25 *398:26 786.651
18 *398:15 *398:23 0.478361
19 *398:28 *398:27 8.76079
20 *398:10 *398:22 1.02178
21 *398:22 *398:23 2.16491
22 *398:19 *398:28 2.83194
23 *398:9 *398:21 1.02178
24 *398:21 *398:22 8.76079
25 *398:20 *398:19 8.76079
26 *398:20 *398:21 8.76079
27 *398:8 *398:20 1.02178
28 *974:PAD *398 0.00653203
*END

*D_NET *399 0.123534

*CONN
*P *399 I *C 80.71 768 *L 0
*I *973:PAD B *C 80.71 768 *L 0 *D PADDI
*I *897:A0 I *C 1073.58 766.295 *L 0.000211 *D AOI22XL

*CAP
1 *973:PAD 0.00194505
2 *897:A0 2.26908e-05
3 *399:3 0.0103274
4 *399:4 0.0141275
5 *399:5 0.0129374
6 *399:6 0.0166451
7 *399:10 0.01813469
8 *399:11 0.000296088
9 *399:12 0.0162228
10 *399:13 3.40363e-05
11 *399:14 0.00012729
12 *399:15 0.000301899
13 *399:16 0.000120372
14 *399:17 1.79866e-05
15 *399:18 1.63263e-05
16 *399:19 2.71183e-05
17 *399:20 3.40363e-05
18 *399:21 0.0120505
19 *399:22 0.000120372
20 *399:23 2.60115e-05
21 *399:24 0.00580277
22 *399:25 0.00514141
23 *399:26 2.60115e-05
24 *399:27 0.00190852
25 *399:28 0.00521198
26 *399:29 0.00190852

*RES
1 *399:27 *897:A0 8.76079
2 *399:27 *399:29 144.606
3 *973:PAD *399:10 3.82004
4 *399:28 *399:29 8.76079
5 *399:10 *399:12 23.5333
6 *399:3 *399:28 314.629
7 *399:25 *399:3 310.362
8 *399:11 *399:12 0.0801725
9 *399:26 *399:25 8.76079
10 *399:11 *399:15 0.968924
11 *399:23 *399:26 1.34517
12 *399:14 *399:15 0.59663
13 *399:24 *399:23 8.76079
14 *399:13 *399:14 0.59663
15 *399:6 *399:24 419.956
16 *399:5 *399:6 786.651
17 *399:4 *399:5 151.233
18 *399:21 *399:4 786.651
19 *399:13 *399:20 0.307651
20 *399:22 *399:21 8.76079
21 *399:9 *399:19 0.254275
22 *399:19 *399:20 2.16491
23 *399:16 *399:22 8.04069
24 *399:8 *399:18 1.01783
25 *399:18 *399:19 2.16491
26 *399:17 *399:16 8.76079
27 *399:17 *399:18 8.76079
28 *399:7 *399:17 1.01783
29 *973:PAD *399 0.00653203
*END

*D_NET *400 0.045683

*CONN
*P *400 I *C 1388 80.71 *L 0
*I *1040:PAD B *C 1388 80.71 *L 0 *D PADDI
*I *967:AN I *C 1389.9399 247.78 *L 0.00021 *D NAND2BXL
*I *965:B I *C 1390.365 248.17 *L 0.000212 *D NAND2BXL

*CAP
1 *1040:PAD 0.00262756
2 *967:AN 2.26818e-05
3 *965:B 2.26818e-05
4 *400:4 2.96375e-05
5 *400:5 4.79846e-05
6 *400:6 0.00660645
7 *400:7 0.00659677
8 *400:11 0.00266083
9 *400:12 2.34883e-05
10 *400:13 0.00012722
11 *400:14 0.00038932
12 *400:15 1.7843e-05
13 *400:16 1.62301e-05
14 *400:17 2.71173e-05
15 *400:18 2.34883e-05
16 *400:19 0.00161595
17 *400:20 0.00038932
18 *400:21 2.60085e-05
19 *400:22 0.00161595
20 *400:23 4.76822e-05
21 *400:6 *401:24 0.0113744
22 *400:7 *401:21 0.01137436

*RES
1 *400:4 *965:B 8.76012
2 *400:11 *1040:PAD 3.88971
3 *400:5 *400:4 1.3884
4 *400:7 *400:11 0.0808061
5 *400:23 *967:AN 8.76012
6 *400:23 *400:5 2.22033
7 *400:7 *400:6 29.9827
8 *400:21 *400:23 1.38289
9 *400:13 *400:6 0.596864
10 *400:22 *400:21 8.76012
11 *400:12 *400:13 0.596864
12 *400:19 *400:22 120.357063
13 *400:12 *400:18 0.165285
14 *400:20 *400:19 8.76012
15 *400:10 *400:17 0.273639
16 *400:17 *400:18 2.16524
17 *400:14 *400:20 28.4676
18 *400:9 *400:16 1.05048
19 *400:16 *400:17 2.16524
20 *400:15 *400:14 8.76012
21 *400:15 *400:16 8.76012
22 *400:8 *400:15 1.05048
23 *1040:PAD *400 0.00734601
*END

*D_NET *401 0.045694

*CONN
*P *401 I *C 1326 80.71 *L 0
*I *1039:PAD B *C 1326 80.71 *L 0 *D PADDI
*I *958:B I *C 1325.1 249.755 *L 0.000211 *D AND2X1
*I *946:AN I *C 1324.5 249.755 *L 0.00021 *D NOR2BX1

*CAP
1 *1039:PAD 0.00258304
2 *958:B 4.63819e-05
3 *946:AN 2.97087e-05
4 *401:4 2.33425e-05
5 *401:5 2.33425e-05
6 *401:6 0.00149706
7 *401:7 0.001501
8 *401:8 3.31444e-05
9 *401:9 2.92034e-05
10 *401:13 1.68753e-05
11 *401:14 2.71824e-05
12 *401:15 2.6273e-05
13 *401:16 7.80106e-05
14 *401:17 0.000499591
15 *401:18 1.78858e-05
16 *401:19 1.68753e-05
17 *401:20 0.000499591
18 *401:21 0.00661655
19 *401:22 0.00261629
20 *401:23 0.000141571
21 *401:24 0.00662231
22 *401:24 *400:6 0.0113744
23 *401:21 *400:7 0.01137436

*RES
1 *946:AN *958:B 1.88174
2 *401:5 *958:B 8.7608
3 *401:5 *401:4 1.49985
4 *401:9 *401:4 8.7608
5 *401:9 *401:8 1.41661
6 *401:8 *401:7 1.02166
7 *401:7 *401:6 106.957489
8 *1039:PAD *401:22 3.82387
9 *401:20 *401:6 8.7608
10 *401:21 *401:22 0.07997
11 *401:17 *401:20 34.725
12 *401:21 *401:24 30.1438
13 *401:18 *401:17 8.7608
14 *401:12 *401:18 1.0494
15 *401:23 *401:24 0.597327
16 *401:19 *401:18 8.7608
17 *401:16 *401:23 0.331304
18 *401:13 *401:19 0.691986
19 *401:11 *401:15 0.0571215
20 *401:15 *401:16 0.597327
21 *401:14 *401:13 2.16572
22 *401:14 *401:15 2.16572
23 *401:10 *401:14 0.274183
24 *1039:PAD *401 0.00652817
*END

*D_NET *402 0.0283285

*CONN
*P *402 I *C 1264 80.71 *L 0
*I *1038:PAD B *C 1264 80.71 *L 0 *D PADDI
*I *945:AN I *C 1261.3 251.465 *L 0.00021 *D NOR2BX1
*I *943:A0N I *C 1266.845 250.02 *L 0.000209 *D OAI2BB1X1
*I *940:A0 I *C 1261.96 248.21 *L 0.000211 *D AOI21XL
*I *936:A0N I *C 1263.4449 250.02 *L 0.000209 *D OAI2BB1X1

*CAP
1 *1038:PAD 0.00262758
2 *945:AN 2.27208e-05
3 *943:A0N 2.27208e-05
4 *940:A0 2.27208e-05
5 *936:A0N 2.27208e-05
6 *402:6 6.66658e-05
7 *402:7 4.84347e-05
8 *402:8 0.000105577
9 *402:9 6.39447e-05
10 *402:10 6.69379e-05
11 *402:11 2.3265e-05
12 *402:12 2.3265e-05
13 *402:13 3.02037e-05
14 *402:14 3.02037e-05
15 *402:15 0.000171426
16 *402:16 0.000117958
17 *402:17 5.56455e-05
18 *402:18 5.97271e-05
19 *402:19 6.43529e-05
20 *402:20 8.16316e-05
21 *402:21 8.16316e-05
22 *402:25 2.35371e-05
23 *402:26 0.00186664
24 *402:27 3.03397e-05
25 *402:28 1.78229e-05
26 *402:29 1.61903e-05
27 *402:30 2.72105e-05
28 *402:31 2.35371e-05
29 *402:32 3.03397e-05
30 *402:33 0.00193032
31 *402:34 7.68697e-05
32 *402:35 0.00889907
33 *402:36 0.00266078
34 *402:37 0.00891621

*RES
1 *402:7 *940:A0 8.76099
2 *402:7 *402:6 2.78737
3 *402:9 *402:6 2.22337
4 *402:10 *945:AN 8.76099
5 *402:12 *936:A0N 8.76099
6 *402:9 *402:8 5.56402
7 *402:8 *402:10 4.03713
8 *1038:PAD *402:36 3.88907
9 *402:12 *402:11 1.5001
10 *402:16 *402:8 8.76099
11 *402:35 *402:36 0.0803626
12 *402:15 *402:11 8.76099
13 *402:16 *402:15 7.11331
14 *402:35 *402:37 31.9190693
15 *402:15 *402:19 4.0006
16 *402:34 *402:37 0.115917
17 *402:19 *402:21 1.02182
18 *402:33 *402:34 0.596632
19 *402:14 *943:A0N 8.76099
20 *402:21 *402:20 4.95862
21 *402:26 *402:33 10.2611
22 *402:14 *402:13 1.34717
23 *402:18 *402:20 1.02182
24 *402:25 *402:26 0.596632
25 *402:17 *402:13 8.76099
26 *402:18 *402:17 4.54999
27 *402:25 *402:31 0.165596
28 *402:32 *402:17 8.76099
29 *402:24 *402:30 0.27372
30 *402:30 *402:31 2.16492
31 *402:27 *402:32 1.33548
32 *402:23 *402:29 1.05007
33 *402:29 *402:30 2.16492
34 *402:28 *402:27 8.76099
35 *402:28 *402:29 8.76099
36 *402:22 *402:28 1.05007
37 *1038:PAD *402 0.0063316
*END

*D_NET *403 0.0271925

*CONN
*P *403 I *C 1202 80.71 *L 0
*I *1037:PAD B *C 1202 80.71 *L 0 *D PADDI
*I *956:A I *C 1201.9 248.235 *L 0.000211 *D NAND2XL

*CAP
1 *1037:PAD 0.00262753
2 *956:A 2.26256e-05
3 *403:3 2.10095e-05
4 *403:4 2.10095e-05
5 *403:10 1.79119e-05
6 *403:11 2.61272e-05
7 *403:12 2.62619e-05
8 *403:13 0.00199052
9 *403:14 1.79119e-05
10 *403:15 1.79119e-05
11 *403:16 1.62958e-05
12 *403:17 2.61272e-05
13 *403:18 0.00882022
14 *403:19 0.0026608
15 *403:20 0.00205422
16 *403:21 0.00882601

*RES
1 *1037:PAD *403:19 3.88936
2 *403:18 *403:19 0.0801234
3 *403:18 *403:21 31.6323185
4 *403:20 *403:21 0.596581
5 *403:13 *403:20 11.4808
6 *403:6 *403:12 0.274157
7 *403:12 *403:13 0.596581
8 *403:11 *403:12 2.16478
9 *403:11 *403:17 0.174727
10 *403:9 *403:16 1.05464
11 *403:16 *403:17 2.16478
12 *403:8 *403:15 1.05464
13 *403:15 *403:16 8.76096
14 *403:7 *403:14 1.05464
15 *403:14 *403:15 8.76096
16 *403:3 *403:14 8.76096
17 *403:4 *403:3 0.815714
18 *403:10 *956:A 8.76096
19 *403:10 *403:4 8.76096
20 *403:5 *403:10 1.05464
21 *1037:PAD *403 0.00675739
*END

*D_NET *404 0.0301068

*CONN
*P *404 O *C 80.0075 706 *L 0
*I *1048:PAD O *C 80.0075 706 *L 0 *D PADDO
*I *955:Y O *C 251.115 701.07 *L 0 *D NOR2X1
*I *949:AN I *C 251.1 702.905 *L 0.00021 *D NOR2BX1
*I *942:B I *C 251.145 708.075 *L 0.000419 *D XNOR2X1

*CAP
1 *1048:PAD 0.00194416
2 *955:Y 2.26925e-05
3 *949:AN 2.26925e-05
4 *942:B 2.26925e-05
5 *404:5 2.62225e-05
6 *404:6 0.000271134
7 *404:7 0.000344759
8 *404:8 9.98472e-05
9 *404:12 3.49633e-05
10 *404:13 0.00198148
11 *404:14 0.01101597
12 *404:15 4.06785e-05
13 *404:16 2.60544e-05
14 *404:17 0.00158394
15 *404:18 0.00158394
16 *404:19 0.0109524
17 *404:20 1.78178e-05
18 *404:21 2.75672e-05
19 *404:22 2.75672e-05
20 *404:23 1.78178e-05
21 *404:24 1.6305e-05
22 *404:25 2.60544e-05

*RES
1 *1048:PAD *404:13 3.81972
2 *404:12 *404:13 0.0805566
3 *404:12 *404:15 0.0354833
4 *404:14 *404:15 0.596502
5 *404:14 *404:19 62.849472
6 *404:18 *404:19 0.596502
7 *404:17 *404:18 23.2262
8 *404:16 *404:17 2.16448
9 *404:16 *404:25 0.162072
10 *404:11 *404:24 1.01751
11 *404:24 *404:25 2.16448
12 *404:8 *955:Y 8.76053
13 *404:10 *404:23 1.01751
14 *404:23 *404:24 8.76053
15 *404:7 *949:AN 8.76053
16 *404:8 *404:7 6.76004
17 *404:5 *942:B 8.76053
18 *404:22 *404:23 8.76053
19 *404:7 *404:6 16.9006
20 *404:6 *404:5 1.34932
21 *404:21 *404:22 1.33973
22 *404:20 *404:6 8.76053
23 *404:20 *404:21 8.76053
24 *404:9 *404:20 1.01751
25 *1048:PAD *404 0.00671305
*END

*D_NET *405 0.0296093

*CONN
*P *405 O *C 80.0075 644 *L 0
*I *1047:PAD O *C 80.0075 644 *L 0 *D PADDO
*I *959:Y O *C 249.725 644.475 *L 0 *D NOR2XL
*I *927:A I *C 249.765 641.09 *L 0.00021 *D AND2X1

*CAP
1 *1047:PAD 0.00194411
2 *959:Y 2.26118e-05
3 *927:A 2.26118e-05
4 *405:4 0.00020201
5 *405:5 0.00020201
6 *405:6 1.91203e-05
7 *405:7 1.91203e-05
8 *405:11 4.47248e-05
9 *405:12 0.00198152
10 *405:13 0.01089605
11 *405:14 5.0544e-05
12 *405:15 0.000404518
13 *405:16 0.000404518
14 *405:17 1.79564e-05
15 *405:18 1.62938e-05
16 *405:19 2.71009e-05
17 *405:20 0.00125113
18 *405:21 0.00125113
19 *405:22 0.0108324

*RES
1 *1047:PAD *405:12 3.8198
2 *405:11 *405:12 0.0798963
3 *405:11 *405:14 0.071336
4 *405:5 *927:A 8.76101
5 *405:13 *405:14 0.596369
6 *405:4 *959:Y 8.76101
7 *405:5 *405:4 12.7986
8 *405:13 *405:22 62.3343124
9 *405:6 *405:4 8.76101
10 *405:21 *405:22 0.596369
11 *405:7 *405:6 0.734285
12 *405:20 *405:21 19.7534
13 *405:15 *405:7 8.76101
14 *405:10 *405:19 0.27393
15 *405:19 *405:20 2.16481
16 *405:15 *405:16 29.1621
17 *405:9 *405:18 1.05482
18 *405:18 *405:19 2.16481
19 *405:17 *405:16 8.76101
20 *405:17 *405:18 8.76101
21 *405:8 *405:17 1.05482
22 *1047:PAD *405 0.00665802
*END

*D_NET *406 0.0298532

*CONN
*P *406 O *C 80.0075 582 *L 0
*I *1046:PAD O *C 80.0075 582 *L 0 *D PADDO
*I *954:Y O *C 250.325 579.495 *L 0 *D NOR2XL
*I *937:A I *C 251.365 579.53 *L 0.00021 *D AND2X1

*CAP
1 *1046:PAD 0.00193436
2 *954:Y 2.5193e-05
3 *937:A 2.26904e-05
4 *406:4 1.7852e-05
5 *406:5 3.62045e-05
6 *406:6 3.93745e-05
7 *406:10 3.00314e-05
8 *406:11 0.00197189
9 *406:12 0.01093393
10 *406:13 3.5704e-05
11 *406:14 2.60272e-05
12 *406:15 0.00180238
13 *406:16 0.00180238
14 *406:17 0.0108704
15 *406:18 4.05424e-05
16 *406:19 3.6705e-05
17 *406:20 3.6705e-05
18 *406:21 1.7852e-05
19 *406:22 1.61836e-05
20 *406:23 2.60272e-05
21 *406:24 2.40251e-05
22 *406:25 2.66946e-05
23 *406:26 3.95413e-05
24 *406:27 4.05424e-05

*RES
1 *954:Y *406:6 1.28
2 *406:24 *406:6 1.301
3 *406:4 *937:A 8.76054
4 *406:24 *406:25 0.604208
5 *406:5 *406:4 0.675797
6 *406:26 *406:25 8.76054
7 *406:26 *406:5 2.15243
8 *406:27 *406:26 8.76054
9 *406:18 *406:27 2.11521
10 *406:19 *406:18 8.76054
11 *406:19 *406:20 2.01021
12 *406:21 *406:20 8.76054
13 *406:8 *406:21 1.01751
14 *406:22 *406:21 8.76054
15 *406:9 *406:22 1.01751
16 *406:23 *406:22 2.16484
17 *406:14 *406:23 0.162268
18 *406:15 *406:14 2.16484
19 *406:15 *406:16 26.4553
20 *406:17 *406:16 0.596572
21 *1046:PAD *406:11 3.79515
22 *406:12 *406:17 62.5550957
23 *406:10 *406:11 0.0801793
24 *406:13 *406:12 0.596572
25 *406:10 *406:13 0.0181358
26 *406:7 *406:13 0.0257719
27 *1046:PAD *406 0.00668161
*END

*D_NET *407 0.0295075

*CONN
*P *407 O *C 80.0075 520 *L 0
*I *1045:PAD O *C 80.0075 520 *L 0 *D PADDO
*I *952:Y O *C 250.14 521.745 *L 0 *D AND2X1
*I *932:B0 I *C 251.1 519.745 *L 0.00021 *D OA21X1

*CAP
1 *1045:PAD 0.00191217
2 *952:Y 5.25549e-05
3 *932:B0 2.26904e-05
4 *407:4 8.37542e-05
5 *407:5 8.37542e-05
6 *407:7 4.47134e-05
7 *407:8 0.0019497
8 *407:9 0.01093393
9 *407:10 5.05528e-05
10 *407:11 2.60272e-05
11 *407:12 0.00158399
12 *407:13 0.00158399
13 *407:14 0.0108704
14 *407:15 4.63818e-05
15 *407:16 1.68509e-05
16 *407:17 1.68509e-05
17 *407:18 2.60272e-05
18 *407:19 6.54017e-05
19 *407:20 1.7852e-05
20 *407:21 3.6705e-05
21 *407:22 3.6705e-05
22 *407:23 4.63818e-05

*RES
1 *1045:PAD *407:8 3.75697
2 *407:7 *407:8 0.0801793
3 *407:7 *407:10 0.0715886
4 *407:9 *407:10 0.596572
5 *407:9 *407:14 62.5550957
6 *407:13 *407:14 0.596572
7 *407:12 *407:13 23.2272
8 *407:11 *407:12 2.16484
9 *407:11 *407:18 0.162268
10 *407:17 *407:18 2.16484
11 *407:16 *407:17 0.67007
12 *407:15 *407:16 8.76054
13 *407:15 *407:23 2.82059
14 *952:Y *407:19 3.02104
15 *407:5 *932:B0 8.76054
16 *407:22 *407:23 8.76054
17 *407:4 *407:19 8.76054
18 *407:5 *407:4 5.38633
19 *407:21 *407:22 2.01021
20 *407:20 *407:4 8.76054
21 *407:20 *407:21 8.76054
22 *407:6 *407:20 1.01751
23 *1045:PAD *407 0.00668161
*END

*D_NET *408 0.0292364

*CONN
*P *408 O *C 80.0075 458 *L 0
*I *1044:PAD O *C 80.0075 458 *L 0 *D PADDO
*I *961:Y O *C 249.915 461.67 *L 0 *D NOR2X1
*I *947:B0 I *C 251.1 461.795 *L 0.000212 *D AOI21XL
*I *941:A I *C 250.165 458.63 *L 0.00021 *D AND2X1

*CAP
1 *1044:PAD 0.00110189
2 *961:Y 2.26584e-05
3 *947:B0 2.26584e-05
4 *941:A 2.26584e-05
5 *408:5 8.70215e-05
6 *408:6 8.24241e-05
7 *408:7 8.29167e-05
8 *408:8 8.75141e-05
9 *408:13 0.00114638
10 *408:14 0.000886798
11 *408:15 3.49728e-05
12 *408:16 0.000879738
13 *408:17 0.01076029
14 *408:18 4.07195e-05
15 *408:19 0.000105247
16 *408:20 0.000853139
17 *408:21 0.000853139
18 *408:22 1.78969e-05
19 *408:23 1.6255e-05
20 *408:24 2.70916e-05
21 *408:25 0.000554146
22 *408:26 0.000554146
23 *408:27 0.0106967
24 *408:28 0.000126756
25 *408:29 3.25099e-05
26 *408:30 6.33779e-05
27 *408:31 1.78969e-05
28 *408:32 5.94373e-05

*RES
1 *1044:PAD *408:13 2.16637
2 *408:13 *408:14 0.0655599
3 *408:14 *408:16 1.65346
4 *408:6 *941:A 8.76092
5 *408:31 *947:B0 8.76092
6 *408:12 *408:31 1.01811
7 *408:15 *408:16 0.0800216
8 *408:6 *408:5 5.38459
9 *408:32 *408:31 8.76092
10 *408:15 *408:18 0.0356723
11 *408:8 *408:5 1.0721
12 *408:30 *408:32 2.821
13 *408:17 *408:18 0.596788
14 *408:7 *961:Y 8.76092
15 *408:8 *408:7 5.60055
16 *408:29 *408:30 1.02196
17 *408:17 *408:27 61.635
18 *408:28 *408:7 8.76092
19 *408:28 *408:29 1.40665
20 *408:26 *408:27 0.596788
21 *408:19 *408:28 6.5531
22 *408:25 *408:26 8.60859
23 *408:20 *408:19 8.76092
24 *408:11 *408:24 0.273809
25 *408:24 *408:25 2.16444
26 *408:20 *408:21 63.1842995
27 *408:10 *408:23 0.221747
28 *408:23 *408:24 2.16444
29 *408:22 *408:21 8.76092
30 *408:22 *408:23 8.76092
31 *408:9 *408:22 1.04992
32 *1044:PAD *408 0.00674881
*END

*D_NET *409 0.0379419

*CONN
*P *409 O *C 80.0075 396 *L 0
*I *1043:PAD O *C 80.0075 396 *L 0 *D PADDO
*I *957:Y O *C 249.725 398.235 *L 0 *D NOR2XL
*I *938:B0 I *C 253.3 393.205 *L 0.00021 *D OA21X1

*CAP
1 *1043:PAD 0.00165569
2 *957:Y 5.54224e-05
3 *938:B0 2.25294e-05
4 *409:4 0.000238362
5 *409:5 0.000238362
6 *409:6 2.681e-05
7 *409:7 3.15412e-05
8 *409:8 3.15412e-05
9 *409:9 2.681e-05
10 *409:10 9.71019e-05
11 *409:11 0.000243543
12 *409:12 0.0144794
13 *409:13 0.01476467
14 *409:14 3.22171e-05
15 *409:15 9.59754e-05
16 *409:20 0.000362949
17 *409:21 0.00170007
18 *409:22 5.00154e-05
19 *409:23 3.40195e-05
20 *409:24 0.000355289
21 *409:25 1.62212e-05
22 *409:26 2.72606e-05
23 *409:27 3.40195e-05
24 *409:28 0.00136326
25 *409:29 0.000355289
26 *409:30 0.0001532
27 *409:31 0.00136326
28 *409:32 6.82642e-05
29 *409:33 1.77983e-05

*RES
1 *957:Y *409:32 2.9699
2 *409:6 *409:32 8.76121
3 *409:7 *409:6 1.35192
4 *409:7 *409:4 1.07659
5 *409:5 *409:4 15.544
6 *409:8 *409:5 1.07659
7 *409:33 *938:B0 8.76121
8 *409:19 *409:33 1.01781
9 *409:9 *409:8 1.35192
10 *409:10 *409:33 8.76121
11 *409:11 *409:9 8.76121
12 *409:11 *409:10 10.588
13 *409:30 *409:11 9.13708
14 *409:31 *409:30 8.76121
15 *409:28 *409:31 101.372612
16 *409:29 *409:28 8.76121
17 *409:24 *409:29 26.9286
18 *409:25 *409:24 8.76121
19 *409:17 *409:25 1.05029
20 *409:26 *409:25 2.16555
21 *409:18 *409:26 0.273788
22 *409:27 *409:26 2.16555
23 *409:21 *1043:PAD 3.25606
24 *409:23 *409:27 0.33102
25 *409:20 *409:21 0.0665134
26 *409:14 *409:23 0.597074
27 *409:13 *409:20 0.626463
28 *409:15 *409:14 0.0371238
29 *409:13 *409:12 21.2255
30 *409:22 *409:15 0.597074
31 *409:22 *409:12 0.0804348
32 *409:16 *409:22 0.0773412
33 *1043:PAD *409 0.00618729
*END

*D_NET *410 0.0293346

*CONN
*P *410 O *C 80.0075 334 *L 0
*I *1042:PAD O *C 80.0075 334 *L 0 *D PADDO
*I *960:Y O *C 250.525 343.515 *L 0 *D NOR2XL
*I *934:AN I *C 250.9 333.545 *L 0.00021 *D NOR2BX1

*CAP
1 *1042:PAD 0.00193026
2 *960:Y 2.27618e-05
3 *934:AN 2.27618e-05
4 *410:4 1.76113e-05
5 *410:5 0.000300223
6 *410:6 0.000294241
7 *410:7 4.55235e-05
8 *410:8 4.55235e-05
9 *410:9 4.31975e-05
10 *410:10 3.85455e-05
11 *410:11 4.22006e-05
12 *410:12 4.22006e-05
13 *410:13 9.66959e-05
14 *410:14 9.66959e-05
15 *410:19 0.00208112
16 *410:20 3.00721e-05
17 *410:21 0.000184088
18 *410:22 0.01088826
19 *410:23 3.5721e-05
20 *410:24 2.02696e-05
21 *410:25 0.000760276
22 *410:26 0.000760276
23 *410:27 1.79436e-05
24 *410:28 1.62821e-05
25 *410:29 2.72476e-05
26 *410:30 0.000314843
27 *410:31 0.000314843
28 *410:32 0.0108246
29 *410:33 2.02696e-05

*RES
1 *410:10 *934:AN 8.76111
2 *410:10 *410:9 3.9806
3 *410:14 *410:9 1.07543
4 *410:14 *410:13 6.05545
5 *410:13 *410:8 1.07543
6 *410:8 *410:7 2.1936
7 *410:12 *410:7 1.07543
8 *410:12 *410:11 4.83942
9 *410:6 *410:11 1.07543
10 *410:5 *960:Y 8.76111
11 *410:6 *410:5 20.1832
12 *410:5 *410:4 0.672616
13 *410:33 *410:4 8.76111
14 *410:24 *410:33 0.704917
15 *410:25 *410:24 8.76111
16 *410:25 *410:26 54.2682
17 *410:27 *410:26 8.76111
18 *410:16 *410:27 1.01747
19 *410:28 *410:27 8.76111
20 *410:17 *410:28 0.214705
21 *410:29 *410:28 2.1651
22 *410:18 *410:29 0.254606
23 *410:30 *410:29 2.1651
24 *410:30 *410:31 4.46036
25 *410:32 *410:31 0.596615
26 *410:22 *410:32 62.2607155
27 *1042:PAD *410:19 3.79534
28 *410:23 *410:22 0.596615
29 *410:19 *410:21 0.0655516
30 *410:20 *410:23 0.0180504
31 *410:20 *410:21 0.0798019
32 *410:15 *410:20 0.0570014
33 *1042:PAD *410 0.00665016
*END

*D_NET *411 0.0325734

*CONN
*P *411 O *C 80.0075 272 *L 0
*I *1041:PAD O *C 80.0075 272 *L 0 *D PADDO
*I *951:Y O *C 249.3 273.315 *L 0 *D INVXL

*CAP
1 *1041:PAD 0.00192806
2 *951:Y 1.96534e-05
3 *411:3 0.000815771
4 *411:4 0.000815771
5 *411:8 0.01022209
6 *411:9 4.07105e-05
7 *411:10 3.49393e-05
8 *411:11 0.00196549
9 *411:12 0.00271794
10 *411:13 0.0101585
11 *411:14 0.000300728
12 *411:15 0.00271794
13 *411:16 0.000225234
14 *411:17 1.79376e-05
15 *411:18 1.79376e-05
16 *411:19 1.62218e-05
17 *411:20 0.000300728
18 *411:21 3.24437e-05
19 *411:22 0.000225234

*RES
1 *411:11 *1041:PAD 3.78249
2 *411:10 *411:11 0.0804786
3 *411:9 *411:10 0.0359787
4 *411:8 *411:9 0.596488
5 *411:8 *411:13 59.0959
6 *411:12 *411:13 0.596488
7 *951:Y *411:21 1.25452
8 *411:12 *411:15 43.1592
9 *411:4 *411:21 8.7608
10 *411:14 *411:15 2.16535
11 *411:4 *411:3 62.0499344
12 *411:14 *411:20 4.0192
13 *411:22 *411:3 8.7608
14 *411:7 *411:19 0.2225
15 *411:19 *411:20 2.16535
16 *411:16 *411:22 16.0796
17 *411:6 *411:18 1.05474
18 *411:18 *411:19 8.7608
19 *411:17 *411:16 8.7608
20 *411:17 *411:18 8.7608
21 *411:5 *411:17 0.2225
22 *1041:PAD *411 0.00662765
*END

*D_NET *412 0.0288147

*CONN
*P *412 O *C 1949.9926 706 *L 0
*I *1056:PAD O *C 1949.9926 706 *L 0 *D PADDO
*I *891:Y O *C 1779.14 708.25 *L 0 *D NAND4XL

*CAP
1 *1056:PAD 0.00194404
2 *891:Y 2.26392e-05
3 *412:3 4.59299e-05
4 *412:4 4.59299e-05
5 *412:5 1.95446e-05
6 *412:6 2.2965e-05
7 *412:7 0.000568423
8 *412:8 0.000568423
9 *412:9 0.01067382
10 *412:13 1.79159e-05
11 *412:14 1.62872e-05
12 *412:15 2.71996e-05
13 *412:16 0.000959805
14 *412:17 0.000959805
15 *412:18 0.00493681
16 *412:19 3.48546e-05
17 *412:20 7.78528e-05
18 *412:21 0.00584304
19 *412:22 4.0718e-05
20 *412:23 0.00198867

*RES
1 *1056:PAD *412:23 3.81994
2 *412:20 *412:23 0.066128
3 *412:19 *412:20 0.080426
4 *412:19 *412:22 0.0357449
5 *412:21 *412:22 0.596344
6 *412:6 *891:Y 8.76107
7 *412:9 *412:21 33.568
8 *412:18 *412:9 28.6561
9 *412:6 *412:5 0.729791
10 *412:17 *412:18 0.596344
11 *412:4 *412:5 8.76107
12 *412:16 *412:17 14.4898
13 *412:4 *412:3 2.11371
14 *412:15 *412:16 2.16495
15 *412:12 *412:15 0.263321
16 *412:8 *412:3 8.76107
17 *412:14 *412:15 2.16495
18 *412:11 *412:14 1.01277
19 *412:8 *412:7 39.0429459
20 *412:13 *412:14 8.76107
21 *412:13 *412:7 8.76107
22 *412:10 *412:13 1.01277
23 *1056:PAD *412 0.00655323
*END

*D_NET *413 0.0284858

*CONN
*P *413 O *C 1949.9926 644 *L 0
*I *1055:PAD O *C 1949.9926 644 *L 0 *D PADDO
*I *890:Y O *C 1780.34 646.69 *L 0 *D NAND4XL

*CAP
1 *1055:PAD 0.00194406
2 *890:Y 2.26807e-05
3 *413:3 1.99266e-05
4 *413:4 1.99266e-05
5 *413:5 0.000996493
6 *413:6 0.000996493
7 *413:7 0.010617
8 *413:11 4.35794e-05
9 *413:12 4.35794e-05
10 *413:13 1.78206e-05
11 *413:14 1.62005e-05
12 *413:15 2.72168e-05
13 *413:16 0.000460418
14 *413:17 0.000460418
15 *413:18 0.00484849
16 *413:19 4.47134e-05
17 *413:20 0.00198148
18 *413:21 0.00587463
19 *413:22 5.05456e-05

*RES
1 *1055:PAD *413:20 3.82005
2 *413:19 *413:20 0.0802167
3 *413:19 *413:22 0.0715447
4 *413:21 *413:22 0.596205
5 *413:4 *890:Y 8.76097
6 *413:7 *413:21 33.7517
7 *413:18 *413:7 28.1409
8 *413:4 *413:3 0.732791
9 *413:17 *413:18 0.596205
10 *413:11 *413:3 8.76097
11 *413:16 *413:17 6.85094
12 *413:11 *413:12 2.10515
13 *413:15 *413:16 2.16477
14 *413:10 *413:15 0.263414
15 *413:6 *413:12 8.76097
16 *413:14 *413:15 2.16477
17 *413:9 *413:14 0.21355
18 *413:6 *413:5 71.0416718
19 *413:13 *413:14 8.76097
20 *413:13 *413:5 8.76097
21 *413:8 *413:13 1.01247
22 *1055:PAD *413 0.00650406
*END

*D_NET *414 0.0288671

*CONN
*P *414 O *C 1949.9926 582 *L 0
*I *1054:PAD O *C 1949.9926 582 *L 0 *D PADDO
*I *889:Y O *C 1776.54 579.57 *L 0 *D NAND4XL

*CAP
1 *1054:PAD 0.00194714
2 *889:Y 2.26526e-05
3 *414:3 0.000839449
4 *414:4 0.000839449
5 *414:5 0.01068012
6 *414:9 0.000201429
7 *414:10 0.000201429
8 *414:11 1.79265e-05
9 *414:12 1.82524e-05
10 *414:13 0.000595649
11 *414:14 0.00491154
12 *414:15 1.82524e-05
13 *414:16 1.62968e-05
14 *414:17 2.72157e-05
15 *414:18 0.000595649
16 *414:19 0.00587451
17 *414:20 4.0742e-05
18 *414:21 3.48752e-05
19 *414:22 0.00198463

*RES
1 *414:22 *1054:PAD 3.81984
2 *414:21 *414:22 0.0801366
3 *414:20 *414:21 0.0356163
4 *414:19 *414:20 0.596572
5 *414:5 *414:19 33.7514
6 *414:14 *414:5 28.5088
7 *414:13 *414:14 0.596572
8 *414:13 *414:18 8.91099
9 *414:17 *414:18 2.16468
10 *414:8 *414:17 0.263165
11 *414:3 *889:Y 8.76061
12 *414:16 *414:17 2.16468
13 *414:7 *414:16 1.0121
14 *414:4 *414:3 64.8374329
15 *414:15 *414:16 8.76061
16 *414:9 *414:4 8.76061
17 *414:12 *414:15 0.701443
18 *414:9 *414:10 12.625
19 *414:11 *414:12 8.76061
20 *414:11 *414:10 8.76061
21 *414:6 *414:11 1.01308
22 *1054:PAD *414 0.00692538
*END

*D_NET *415 0.0358217

*CONN
*P *415 O *C 1949.9926 520 *L 0
*I *1053:PAD O *C 1949.9926 520 *L 0 *D PADDO
*I *892:Y O *C 1778.34 518.01 *L 0 *D NAND4XL

*CAP
1 *1053:PAD 0.00192495
2 *892:Y 2.26119e-05
3 *415:3 0.00113451
4 *415:4 0.00113915
5 *415:5 0.000288699
6 *415:6 0.000288699
7 *415:7 3.54457e-05
8 *415:8 3.08011e-05
9 *415:9 0.00801012
10 *415:13 0.000156328
11 *415:14 2.16341e-05
12 *415:15 0.003658
13 *415:16 4.60794e-05
14 *415:17 1.78451e-05
15 *415:18 1.62561e-05
16 *415:19 2.71343e-05
17 *415:20 2.16341e-05
18 *415:21 0.000156328
19 *415:22 4.60794e-05
20 *415:23 0.00445809
21 *415:24 6.97914e-05
22 *415:25 6.40467e-05
23 *415:26 0.00196235
24 *415:25 *416:9 4.054e-05
25 *415:24 *416:10 4.054e-05
26 *415:23 *416:11 0.00331365
27 *415:9 *416:12 0.00331365
28 *415:9 *416:12 0.00275557
29 *415:15 *416:13 0.00275557
30 *415:20 *416:14 2.92e-06
31 *415:14 *416:15 2.92019444e-06

*RES
1 *415:3 *892:Y 8.76045
2 *415:26 *1053:PAD 3.78214
3 *415:4 *415:3 80.3196335
4 *415:25 *415:26 0.0796627
5 *415:4 *415:5 1.07116
6 *415:24 *415:25 0.14707
7 *415:6 *415:5 19.5137
8 *415:23 *415:24 0.596858
9 *415:7 *415:6 1.07116
10 *415:9 *415:23 33.7513
11 *415:15 *415:9 28.067
12 *415:8 *415:7 1.34078
13 *415:14 *415:15 0.596858
14 *415:13 *415:8 8.76045
15 *415:14 *415:20 0.159325
16 *415:13 *415:21 9.81935
17 *415:19 *415:20 2.16437
18 *415:12 *415:19 0.2635
19 *415:22 *415:21 8.76045
20 *415:18 *415:19 2.16437
21 *415:11 *415:18 1.01233
22 *415:16 *415:22 2.66809
23 *415:17 *415:18 8.76045
24 *415:17 *415:16 8.76045
25 *415:10 *415:17 1.01233
26 *1053:PAD *415 0.0061279
*END

*D_NET *416 0.0358277

*CONN
*P *416 O *C 1949.9926 458 *L 0
*I *1052:PAD O *C 1949.9926 458 *L 0 *D PADDO
*I *895:Y O *C 1778.34 462.01 *L 0 *D NAND4XL

*CAP
1 *1052:PAD 0.00194417
2 *895:Y 2.27201e-05
3 *416:3 0.000791375
4 *416:4 0.000791375
5 *416:5 3.14871e-05
6 *416:6 2.67949e-05
7 *416:7 2.67949e-05
8 *416:8 3.14871e-05
9 *416:9 6.38385e-05
10 *416:10 5.81585e-05
11 *416:11 0.00448969
12 *416:12 0.00809218
13 *416:13 0.00370844
14 *416:14 0.000573065
15 *416:15 0.000573065
16 *416:19 0.000106686
17 *416:20 0.000106686
18 *416:21 1.79044e-05
19 *416:22 1.82749e-05
20 *416:23 1.82749e-05
21 *416:24 1.62992e-05
22 *416:25 2.71653e-05
23 *416:26 7.77916e-05
24 *416:27 0.00198863
25 *416:9 *415:25 4.054e-05
26 *416:10 *415:24 4.054e-05
27 *416:11 *415:23 0.00331365
28 *416:12 *415:9 0.00331365
29 *416:12 *415:9 0.00275557
30 *416:13 *415:15 0.00275557
31 *416:14 *415:20 2.92e-06
32 *416:15 *415:14 2.92019444e-06

*RES
1 *1052:PAD *416:27 3.81975
2 *416:26 *416:27 0.0663091
3 *416:10 *416:26 0.0802689
4 *416:10 *416:9 0.143088
5 *416:11 *416:9 0.596782
6 *416:6 *895:Y 8.76065
7 *416:12 *416:11 33.9354
8 *416:13 *416:12 28.362
9 *416:6 *416:5 1.34014
10 *416:14 *416:13 0.596782
11 *416:5 *416:4 1.07142
12 *416:15 *416:14 8.85488
13 *416:4 *416:3 57.1793633
14 *416:25 *416:15 2.16464
15 *416:18 *416:25 0.262619
16 *416:8 *416:3 1.07142
17 *416:24 *416:25 2.16464
18 *416:17 *416:24 0.21376
19 *416:8 *416:7 1.34014
20 *416:23 *416:24 8.76065
21 *416:19 *416:7 8.76065
22 *416:22 *416:23 0.70148
23 *416:19 *416:20 6.31245
24 *416:21 *416:22 8.76065
25 *416:21 *416:20 8.76065
26 *416:16 *416:21 0.21376
27 *1052:PAD *416 0.00610742
*END

*D_NET *417 0.0282919

*CONN
*P *417 O *C 1949.9926 396 *L 0
*I *1051:PAD O *C 1949.9926 396 *L 0 *D PADDO
*I *894:Y O *C 1780.34 398.31 *L 0 *D NAND4XL

*CAP
1 *1051:PAD 0.00172382
2 *894:Y 1.9733e-05
3 *417:3 0.000708979
4 *417:4 0.000708979
5 *417:5 0.01026352
6 *417:9 3.25751e-05
7 *417:10 0.000194511
8 *417:11 0.000194511
9 *417:12 1.78537e-05
10 *417:13 1.78537e-05
11 *417:14 1.62876e-05
12 *417:15 0.000138444
13 *417:16 0.000138444
14 *417:17 0.000772563
15 *417:18 0.000772563
16 *417:19 0.00449506
17 *417:20 0.000217376
18 *417:21 0.00176125
19 *417:22 0.00587449
20 *417:23 0.000223014

*RES
1 *1051:PAD *417:21 3.38179
2 *417:20 *417:21 0.08035
3 *417:20 *417:23 0.69873
4 *417:22 *417:23 0.596323
5 *417:5 *417:22 33.7517
6 *417:19 *417:5 26.0807
7 *417:18 *417:19 0.596323
8 *417:17 *417:18 11.6318
9 *894:Y *417:9 1.22573
10 *417:16 *417:17 2.16472
11 *417:4 *417:9 8.76051
12 *417:15 *417:16 1.67947
13 *417:4 *417:3 51.6256714
14 *417:14 *417:15 2.16472
15 *417:8 *417:14 1.01304
16 *417:10 *417:3 8.76051
17 *417:13 *417:14 8.76051
18 *417:7 *417:13 1.01304
19 *417:10 *417:11 13.3397
20 *417:12 *417:13 8.76051
21 *417:12 *417:11 8.76051
22 *417:6 *417:12 1.01383
23 *1051:PAD *417 0.00630196
*END

*D_NET *418 0.0288658

*CONN
*P *418 O *C 1949.9926 334 *L 0
*I *1050:PAD O *C 1949.9926 334 *L 0 *D PADDO
*I *893:Y O *C 1777.34 333.33 *L 0 *D NAND4XL

*CAP
1 *1050:PAD 0.00193143
2 *893:Y 5.06846e-05
3 *418:3 0.0014669
4 *418:4 0.0014669
5 *418:5 0.01074956
6 *418:11 6.36428e-05
7 *418:12 1.86992e-05
8 *418:13 1.83711e-05
9 *418:14 1.62387e-05
10 *418:15 2.72286e-05
11 *418:16 2.62444e-05
12 *418:17 0.00501252
13 *418:18 1.86992e-05
14 *418:19 1.7879e-05
15 *418:20 1.83711e-05
16 *418:21 3.00171e-05
17 *418:22 7.77492e-05
18 *418:23 0.005843
19 *418:24 3.57581e-05
20 *418:25 0.00197588

*RES
1 *1050:PAD *418:25 3.79431
2 *893:Y *418:11 3.04178
3 *418:22 *418:25 0.0665961
4 *418:4 *418:11 8.76072
5 *418:21 *418:22 0.0799153
6 *418:10 *418:21 0.0566067
7 *418:4 *418:3 109.111069
8 *418:21 *418:24 0.0183139
9 *418:12 *418:3 8.76072
10 *418:23 *418:24 0.596035
11 *418:12 *418:18 0.700924
12 *418:5 *418:23 33.5678
13 *418:17 *418:5 29.0975
14 *418:9 *418:19 1.01393
15 *418:19 *418:18 8.76072
16 *418:16 *418:17 0.596035
17 *418:8 *418:16 0.263055
18 *418:20 *418:19 8.76072
19 *418:15 *418:16 2.16437
20 *418:7 *418:15 0.263055
21 *418:13 *418:20 0.700924
22 *418:14 *418:15 2.16437
23 *418:14 *418:13 8.76072
24 *418:6 *418:14 1.01226
25 *1050:PAD *418 0.00665961
*END

*D_NET *419 0.0287468

*CONN
*P *419 O *C 1949.9926 272 *L 0
*I *1049:PAD O *C 1949.9926 272 *L 0 *D PADDO
*I *896:Y O *C 1777.54 271.77 *L 0 *D NAND4XL

*CAP
1 *1049:PAD 0.00191522
2 *896:Y 3.93177e-05
3 *419:3 0.00144094
4 *419:4 0.00144094
5 *419:5 0.01078112
6 *419:10 5.21495e-05
7 *419:11 1.87541e-05
8 *419:12 1.82605e-05
9 *419:13 1.62864e-05
10 *419:14 2.7144e-05
11 *419:15 2.6157e-05
12 *419:16 0.0050126
13 *419:17 1.87541e-05
14 *419:18 1.79315e-05
15 *419:19 1.82605e-05
16 *419:20 3.4876e-05
17 *419:21 0.00195273
18 *419:22 0.00587463
19 *419:23 4.06338e-05

*RES
1 *896:Y *419:10 2.50864
2 *1049:PAD *419:21 3.75802
3 *419:4 *419:10 8.7605
4 *419:20 *419:21 0.0805525
5 *419:4 *419:3 107.736519
6 *419:20 *419:23 0.0361664
7 *419:11 *419:3 8.7605
8 *419:22 *419:23 0.596746
9 *419:11 *419:17 0.701958
10 *419:5 *419:22 33.7515
11 *419:16 *419:5 29.0975
12 *419:9 *419:18 1.01266
13 *419:18 *419:17 8.7605
14 *419:15 *419:16 0.596746
15 *419:8 *419:15 0.263029
16 *419:19 *419:18 8.7605
17 *419:14 *419:15 2.16505
18 *419:7 *419:14 0.263029
19 *419:12 *419:19 0.701958
20 *419:13 *419:14 2.16505
21 *419:13 *419:12 8.7605
22 *419:6 *419:13 1.01266
23 *1049:PAD *419 0.00657572
*END

*D_NET *420 0.000183579

*CONN
*I *888:A I *C 272.5 1776.975 *L 0.000801 *D INVX2
*I *931:Q O *C 273.1 1776.975 *L 0 *D DFFQXL

*CAP
1 *888:A 2.26699e-05
2 *931:Q 2.26699e-05
3 *420:2 1.75695e-05
4 *420:3 4.94796e-05
5 *420:4 1.96399e-05
6 *420:5 5.15499463e-05

*RES
1 *420:4 *931:Q 8.76079178
2 *420:4 *420:5 0.758896
3 *420:3 *420:5 3.33436
4 *420:2 *420:3 0.695265
5 *888:A *420:2 8.76079178
*END

*D_NET *421 0.000207902

*CONN
*I *876:A I *C 267.585 1780.245 *L 0.00161 *D INVX4
*I *933:Q O *C 267.94 1780.33 *L 0 *D DFFHQX1

*CAP
1 *876:A 2.26706e-05
2 *933:Q 2.26706e-05
3 *421:2 1.32004e-05
4 *421:3 7.23402e-05
5 *421:4 7.702e-05

*RES
1 *421:4 *933:Q 8.76079178
2 *421:3 *421:4 5.55717
3 *421:2 *421:3 0.346229
4 *876:A *421:2 8.76079178
*END

*D_NET *422 0.00015172

*CONN
*I *868:A I *C 259.3 1780.395 *L 0.000395 *D INVX1
*I *944:Q O *C 259.74 1780.33 *L 0 *D DFFHQX1

*CAP
1 *868:A 2.26702e-05
2 *944:Q 2.26702e-05
3 *422:2 4.425e-05
4 *422:3 2.59599e-05
5 *422:4 3.61697e-05

*RES
1 *422:3 *868:A 8.76079178
2 *422:4 *944:Q 8.76079178
3 *422:2 *422:3 1.38478
4 *422:2 *422:4 2.22295
*END

*D_NET *423 0.000887974

*CONN
*I *870:A I *C 275.3 1771.655 *L 0.00161 *D CLKINVX4
*I *963:B I *C 279.575 1775.3051 *L 0.000392 *D NOR2X1
*I *962:Q O *C 275.94 1774.95 *L 0 *D DFFHQX1

*CAP
1 *870:A 2.26715e-05
2 *963:B 2.26715e-05
3 *962:Q 2.26715e-05
4 *423:3 0.000108231
5 *423:4 0.00010743
6 *423:6 8.08393e-05
7 *423:7 9.91303e-05
8 *423:8 2.59575e-05
9 *423:9 0.00019024
10 *423:10 1.78904e-05
11 *423:11 0.00019024

*RES
1 *423:6 *870:A 8.76084
2 *423:6 *423:7 5.34706
3 *423:7 *423:4 2.14577
4 *423:4 *423:3 6.03472
5 *423:3 *962:Q 8.76084
6 *423:3 *423:8 1.34289
7 *423:9 *423:8 8.76084
8 *423:9 *423:11 12.6484385
9 *423:10 *963:B 8.76084
10 *423:10 *423:11 8.76084
11 *423:5 *423:10 1.01344
*END

*D_NET *424 0.000233421

*CONN
*I *963:Y O *C 279.715 1774.95 *L 0 *D NOR2X1
*I *962:D I *C 278.5 1775.075 *L 0.000307 *D DFFHQX1

*CAP
1 *963:Y 2.267e-05
2 *962:D 2.267e-05
3 *424:2 8.51e-05
4 *424:3 2.59605e-05
5 *424:4 7.70205e-05

*RES
1 *424:3 *962:D 8.76079178
2 *424:4 *963:Y 8.76079178
3 *424:2 *424:3 1.34281
4 *424:2 *424:4 5.36454
*END

*D_NET *425 0.0002118

*CONN
*I *851:A I *C 260.1 1395.265 *L 0.00241 *D CLKINVX6
*I *966:Y O *C 259.92 1393.285 *L 0 *D NAND2BX1

*CAP
1 *851:A 2.26696e-05
2 *966:Y 2.26696e-05
3 *425:2 7.429e-05
4 *425:3 6.96105e-05
5 *425:4 2.25608e-05

*RES
1 *425:4 *851:A 8.76079178
2 *425:2 *425:4 1.07625
3 *425:3 *425:2 4.8988
4 *966:Y *425:3 8.76079178
*END

*D_NET *426 0.00034484

*CONN
*I *842:A I *C 1387.9449 249.76 *L 0.000389 *D BUFX3
*I *967:Y O *C 1389.52 247.68 *L 0 *D NAND2BXL

*CAP
1 *842:A 2.26705e-05
2 *967:Y 6.886e-05
3 *426:2 8.171e-05
4 *426:3 8.58e-05
5 *426:4 8.58e-05

*RES
1 *426:4 *842:A 8.76079178
2 *426:3 *426:4 5.53311
3 *426:2 *426:3 8.76079178
4 *426:2 *967:Y 4.39069
*END

*D_NET *427 3.96e-05

*CONN
*I *846:A I *C 259.1 995.315 *L 0.00161 *D CLKINVX4
*I *969:Y O *C 258.755 995.36 *L 0 *D NAND2X1

*CAP
1 *846:A 1.98e-05
2 *969:Y 1.98e-05

*RES
1 *969:Y *846:A 1.20834
*END

*D_NET *428 0.00026346

*CONN
*I *858:A I *C 258.585 1381.735 *L 0.00161 *D INVX4
*I *968:Y O *C 259.12 1382.235 *L 0 *D NAND2BX1

*CAP
1 *858:A 2.26701e-05
2 *968:Y 2.71303e-05
3 *428:2 1.99e-05
4 *428:3 6.542e-05
5 *428:4 6.50506e-05
6 *428:5 4.37601e-05
7 *428:6 1.95297e-05

*RES
1 *428:5 *968:Y 1.20833
2 *428:6 *428:5 8.76079178
3 *428:4 *428:6 0.731626
4 *428:3 *428:4 4.30473
5 *428:2 *428:3 0.853808
6 *858:A *428:2 8.76079178
*END

*D_NET *429 0.0126048

*CONN
*I *970:Y O *C 250.13 607.2 *L 0 *D INVX2
*I *959:A I *C 249.37 644.81 *L 0.000212 *D NOR2XL
*I *955:A I *C 250.7 701.005 *L 0.000392 *D NOR2X1
*I *954:A I *C 249.97 579.83 *L 0.000212 *D NOR2XL
*I *953:A I *C 249.9 578.075 *L 0.00039 *D NAND2X1

*CAP
1 *970:Y 3.24257e-05
2 *959:A 2.2678e-05
3 *955:A 2.2678e-05
4 *954:A 2.2678e-05
5 *953:A 2.2678e-05
6 *429:5 0.00113558
7 *429:6 0.00113558
8 *429:7 0.000769347
9 *429:8 0.000774033
10 *429:9 8.16908e-05
11 *429:10 8.16908e-05
12 *429:11 0.00163752
13 *429:12 0.00164221
14 *429:13 0.00141759
15 *429:14 0.00141759
16 *429:15 7.8809e-05
17 *429:16 5.01922e-05
18 *429:17 7.2795e-05
19 *429:18 3.31524e-05
20 *429:19 3.78133e-05
21 *429:20 0.000168519
22 *429:21 0.000243118
23 *429:22 9.08121e-05
24 *429:23 6.81592e-05
25 *429:24 7.8809e-05
26 *429:25 6.81592e-05
27 *429:26 2.25527e-05
28 *429:7 *288:3 5.609e-05
29 *429:8 *288:4 5.609e-05
30 *429:9 *288:3 3.882e-05
31 *429:10 *288:4 3.882e-05
32 *429:11 *288:3 0.00012474
33 *429:12 *288:4 0.00012474
34 *429:13 *288:3 0.00011231
35 *429:14 *288:4 0.000112309986
36 *429:11 *292:23 3.92e-06
37 *429:12 *292:24 3.92e-06
38 *429:22 *292:23 1.398e-05
39 *429:21 *292:24 1.398e-05
40 *429:21 *292:25 3.92e-06
41 *429:20 *292:26 3.92e-06
42 *429:13 *292:27 4.31e-06
43 *429:14 *292:28 4.31e-06
44 *429:19 *292:29 7.83e-06
45 *429:18 *292:30 7.83e-06
46 *429:21 *292:5 7.18e-06
47 *429:20 *292:6 7.18e-06
48 *429:13 *292:31 2.06e-06
49 *429:14 *292:32 2.06e-06
50 *429:13 *292:7 0.00010987
51 *429:14 *292:8 0.00010987
52 *429:19 *292:7 4.31e-06
53 *429:18 *292:8 4.31e-06
54 *429:21 *292:13 5.16e-06
55 *429:20 *292:14 5.16e-06
56 *429:5 *292:29 0.00019352
57 *429:6 *292:30 0.000193519999

*RES
1 *429:7 *955:A 8.76168
2 *429:8 *429:7 60.5036
3 *429:26 *429:8 1.07643
4 *429:25 *429:26 8.76168
5 *429:23 *429:25 2.97063
6 *429:11 *429:23 8.76168
7 *429:12 *429:11 136.715576
8 *429:22 *429:12 1.11398
9 *429:21 *959:A 8.76168
10 *429:21 *429:22 6.97179
11 *429:20 *429:21 12.1433
12 *429:20 *429:13 1.11398
13 *429:14 *429:13 125.511
14 *429:19 *429:14 1.11398
15 *429:10 *953:A 8.76168
16 *429:18 *429:19 4.13259
17 *429:9 *954:A 8.76168
18 *429:10 *429:9 7.61014
19 *429:17 *429:18 8.76168
20 *429:17 *970:Y 1.88168
21 *429:24 *429:9 8.76168
22 *429:16 *429:17 1.88168
23 *429:15 *429:24 4.36832
24 *429:5 *429:16 8.76168
25 *429:6 *429:15 8.76168
26 *429:6 *429:5 98.7107
*END

*D_NET *430 0.00027179

*CONN
*I *844:A I *C 257.1 993.795 *L 0.0012 *D INVX3
*I *964:Y O *C 258.325 993.315 *L 0 *D NOR2XL

*CAP
1 *844:A 2.26698e-05
2 *964:Y 2.26698e-05
3 *430:2 2.41601e-05
4 *430:3 2.41601e-05
5 *430:5 1.78896e-05
6 *430:6 8.012e-05
7 *430:7 8.012e-05

*RES
1 *430:3 *964:Y 8.76079178
2 *430:3 *430:2 1.58223
3 *430:7 *430:2 8.76079178
4 *430:6 *430:7 4.23068
5 *430:5 *844:A 8.76079178
6 *430:5 *430:6 8.76079178
7 *430:4 *430:5 1.0185
*END

*D_NET *431 4.578e-05

*CONN
*I *581:A I *C 250.7 578.075 *L 0.00161 *D CLKINVX4
*I *953:Y O *C 250.355 578.12 *L 0 *D NAND2X1

*CAP
1 *581:A 2.289e-05
2 *953:Y 2.289e-05

*RES
1 *953:Y *581:A 1.20834
*END

*D_NET *432 0.00116883

*CONN
*I *950:Y O *C 263.14 1770.0699 *L 0 *D AOI21XL
*I *944:D I *C 262.3 1780.205 *L 0.000307 *D DFFHQX1

*CAP
1 *950:Y 2.26652e-05
2 *944:D 2.26652e-05
3 *432:2 0.000116241
4 *432:3 7.07155e-05
5 *432:4 0.000445505
6 *432:5 0.00049103

*RES
1 *432:4 *950:Y 8.76072
2 *432:3 *944:D 8.76072
3 *432:4 *432:5 31.0884991
4 *432:2 *432:3 4.84667
5 *432:2 *432:5 4.44582
*END

*D_NET *433 0.0062282

*CONN
*I *958:Y O *C 1325.74 249.655 *L 0 *D AND2X1
*I *948:AN I *C 1266.9399 251.2 *L 0.00021 *D NAND2BXL
*I *943:A1N I *C 1267.1 249.565 *L 0.00021 *D OAI2BB1X1

*CAP
1 *958:Y 2.26547e-05
2 *948:AN 2.26547e-05
3 *943:A1N 2.26547e-05
4 *433:4 5.68526e-05
5 *433:5 5.21803e-05
6 *433:6 3.52973e-05
7 *433:7 0.00256909
8 *433:8 7.36571e-05
9 *433:9 4.99423e-05
10 *433:10 0.00257309
11 *433:11 3.36875e-05
12 *433:12 1.79039e-05
13 *433:13 2.96827e-05
14 *433:13 *310:7 2.45e-06
15 *433:11 *310:8 2.45e-06
16 *433:10 *310:7 0.00016559
17 *433:7 *310:8 0.000165590002
18 *433:10 *287:9 0.00016638
19 *433:7 *287:10 0.000166379993

*RES
1 *433:5 *948:AN 8.75951
2 *433:4 *433:5 2.67988
3 *433:4 *433:9 1.07653
4 *433:8 *943:A1N 8.75951
5 *433:8 *433:9 2.67661
6 *433:6 *433:8 2.07781
7 *433:7 *433:6 8.75951
8 *433:7 *433:10 214.442871
9 *433:10 *433:11 1.06017
10 *433:11 *433:13 1.46919
11 *433:12 *433:13 8.75951
12 *433:12 *958:Y 8.75951
13 *433:3 *433:12 1.05363
*END

*D_NET *434 0.000202249

*CONN
*I *569:A I *C 252.1 461.795 *L 0.00021 *D BUFX2
*I *947:Y O *C 251.34 461.67 *L 0 *D AOI21XL

*CAP
1 *569:A 2.26699e-05
2 *947:Y 2.26699e-05
3 *434:2 1.92297e-05
4 *434:3 1.92297e-05
5 *434:5 1.78901e-05
6 *434:6 5.028e-05
7 *434:7 5.028e-05

*RES
1 *434:3 *569:A 8.76079178
2 *434:3 *434:2 0.800337
3 *434:7 *434:2 8.76079178
4 *434:6 *434:7 2.82076
5 *434:5 *434:6 8.76079178
6 *434:5 *947:Y 8.76079178
7 *434:4 *434:5 1.01823
*END

*D_NET *435 0.000432259

*CONN
*I *814:A I *C 1202.3 251.655 *L 0.000801 *D INVX2
*I *956:Y O *C 1202.34 248.335 *L 0 *D NAND2XL

*CAP
1 *814:A 2.26685e-05
2 *956:Y 2.26685e-05
3 *435:2 0.00019346
4 *435:3 0.00019346

*RES
1 *435:3 *814:A 8.76075
2 *435:2 *435:3 11.4189453
3 *956:Y *435:2 8.76075
*END

*D_NET *436 0.000279939

*CONN
*I *773:A I *C 1259.385 251.505 *L 0.00161 *D INVX4
*I *945:Y O *C 1260.92 251.795 *L 0 *D NOR2BX1

*CAP
1 *773:A 2.26695e-05
2 *945:Y 2.26695e-05
3 *436:2 1.98702e-05
4 *436:3 1.98702e-05
5 *436:4 8.423e-05
6 *436:5 8.423e-05
7 *436:7 1.31997e-05
8 *436:8 1.31997e-05

*RES
1 *436:2 *945:Y 8.76079178
2 *436:3 *436:2 0.734567
3 *436:4 *436:3 8.76079178
4 *436:5 *436:4 8.03465
5 *436:8 *436:5 8.76079178
6 *436:7 *773:A 8.76079178
7 *436:7 *436:8 0.335
8 *436:6 *436:7 0.52977
*END

*D_NET *437 0.000329298

*CONN
*I *865:A I *C 1389.145 249.76 *L 0.000389 *D BUFX3
*I *965:Y O *C 1390.3199 247.68 *L 0 *D NAND2BXL

*CAP
1 *865:A 2.267e-05
2 *965:Y 2.267e-05
3 *437:2 2.63998e-05
4 *437:3 2.63998e-05
5 *437:4 5.13892e-05
6 *437:5 5.13892e-05
7 *437:6 6.419e-05
8 *437:7 6.419e-05

*RES
1 *437:3 *965:Y 8.76079178
2 *437:3 *437:2 1.39467
3 *437:7 *437:2 8.76079178
4 *437:4 *865:A 8.76079178
5 *437:6 *437:7 3.66869
6 *437:5 *437:4 4.638
7 *437:5 *437:6 8.76079178
*END

*D_NET *438 0.00463404

*CONN
*I *811:A I *C 250.1 752.305 *L 0.0012 *D INVX3
*I *942:Y O *C 250.14 707.735 *L 0 *D XNOR2X1

*CAP
1 *811:A 1.97996e-05
2 *942:Y 1.15438e-05
3 *438:2 0.000772399
4 *438:3 3.26479e-05
5 *438:4 0.000767718
6 *438:5 2.43743e-05
7 *438:6 4.42096e-05
8 *438:7 6.19006e-05
9 *438:8 4.42096e-05
10 *438:9 5.47706e-05
11 *438:10 2.25515e-05
12 *438:11 6.19006e-05
13 *438:12 0.00117109
14 *438:13 5.47706e-05
15 *438:14 0.00117109
16 *438:14 *288:3 8.787e-05
17 *438:12 *288:4 8.787e-05
18 *438:8 *288:3 1.442e-05
19 *438:6 *288:4 1.442e-05
20 *438:4 *288:15 5.437e-05
21 *438:2 *288:16 5.437e-05
22 *438:4 *288:3 2.87e-06
23 *438:2 *288:4 2.86999576e-06

*RES
1 *438:5 *942:Y 0.593583
2 *438:6 *438:5 8.76139
3 *438:6 *438:8 3.04478
4 *438:7 *438:8 8.76139
5 *438:7 *438:11 2.35583
6 *438:12 *438:11 8.76139
7 *438:12 *438:14 93.2878265
8 *438:13 *438:14 8.76139
9 *438:3 *811:A 1.18859
10 *438:9 *438:13 2.37575
11 *438:4 *438:3 8.76139
12 *438:10 *438:9 8.76139
13 *438:2 *438:4 62.3062
14 *438:2 *438:10 1.11457
*END

*D_NET *439 0.00036624

*CONN
*I *831:A I *C 1262.77 251.46 *L 0.000389 *D BUFX4
*I *948:Y O *C 1266.52 251.1 *L 0 *D NAND2BXL

*CAP
1 *831:A 9.91131e-06
2 *948:Y 0.00016988
3 *439:2 0.00017321
4 *439:3 1.32389e-05

*RES
1 *439:2 *948:Y 10.2706337
2 *439:2 *439:3 0.308106
3 *831:A *439:3 0.604146
*END

*D_NET *440 0.000980803

*CONN
*I *939:Y O *C 271.115 1771.53 *L 0 *D NOR2X1
*I *933:D I *C 270.5 1780.205 *L 0.000307 *D DFFHQX1

*CAP
1 *939:Y 2.26682e-05
2 *933:D 2.26682e-05
3 *440:2 0.00045879
4 *440:3 0.000440497
5 *440:4 3.61725e-05

*RES
1 *440:3 *933:D 8.76093
2 *440:4 *939:Y 8.76093
3 *440:2 *440:3 31.4864826
4 *440:2 *440:4 2.15816
*END

*D_NET *441 0.00034842

*CONN
*I *826:A I *C 1264.585 249.715 *L 0.00161 *D INVX4
*I *943:Y O *C 1266.535 250.24 *L 0 *D OAI2BB1X1

*CAP
1 *826:A 2.267e-05
2 *943:Y 8.02907e-05
3 *441:2 6.72197e-05
4 *441:3 2.17007e-05
5 *441:4 9.314e-05
6 *441:5 6.33994e-05

*RES
1 *441:4 *943:Y 5.01791
2 *441:3 *826:A 8.76079178
3 *441:5 *441:4 8.76079178
4 *441:2 *441:3 1.03882
5 *441:2 *441:5 4.4467
*END

*D_NET *442 0.000215001

*CONN
*I *779:A I *C 1323.1 249.565 *L 0.000801 *D INVX2
*I *946:Y O *C 1324.12 249.425 *L 0 *D NOR2BX1

*CAP
1 *779:A 2.26703e-05
2 *946:Y 2.26703e-05
3 *442:2 6.729e-05
4 *442:3 2.17708e-05
5 *442:4 6.30607e-05
6 *442:5 1.75394e-05

*RES
1 *442:5 *946:Y 8.76079178
2 *442:3 *779:A 8.76079178
3 *442:4 *442:5 0.697136
4 *442:2 *442:3 1.55201
5 *442:2 *442:4 4.45833
*END

*D_NET *443 0.00022472

*CONN
*I *716:A I *C 1261.9 249.565 *L 0.0012 *D INVX3
*I *936:Y O *C 1263.135 250.24 *L 0 *D OAI2BB1X1

*CAP
1 *716:A 2.26698e-05
2 *936:Y 2.26698e-05
3 *443:2 3.85499e-05
4 *443:3 4.254e-05
5 *443:6 1.78904e-05
6 *443:7 2.92603e-05
7 *443:8 3.32505e-05
8 *443:9 1.78904e-05

*RES
1 *443:5 *443:9 1.05205
2 *443:9 *936:Y 8.76079178
3 *443:2 *443:9 8.76079178
4 *443:3 *443:2 2.21078
5 *443:3 *443:8 1.05887
6 *443:7 *443:8 1.47087
7 *443:6 *716:A 8.76079178
8 *443:6 *443:7 8.76079178
9 *443:4 *443:6 1.05205
*END

*D_NET *444 0.000494301

*CONN
*I *935:Y O *C 274.915 1773.49 *L 0 *D NOR2X1
*I *931:D I *C 275.97 1776.715 *L 0.00021 *D DFFQXL

*CAP
1 *935:Y 2.951e-05
2 *931:D 2.26693e-05
3 *444:2 7.69292e-05
4 *444:3 0.00010416
5 *444:4 4.23602e-05
6 *444:5 2.67699e-05
7 *444:6 3.14491e-05
8 *444:7 9.61797e-05
9 *444:8 6.42698e-05

*RES
1 *444:8 *931:D 8.76079178
2 *444:7 *444:8 3.64021
3 *444:3 *444:7 3.21284
4 *444:2 *444:3 6.68529
5 *444:2 *444:6 1.07291
6 *444:5 *444:6 1.34227
7 *444:4 *444:5 8.76079178
8 *935:Y *444:4 1.81255
*END

*D_NET *445 0.000349023

*CONN
*I *783:A I *C 1261.385 248.085 *L 0.00161 *D INVX4
*I *940:Y O *C 1262.54 248.17 *L 0 *D AOI21XL

*CAP
1 *783:A 2.26698e-05
2 *940:Y 2.26698e-05
3 *445:2 3.352e-05
4 *445:3 0.00010086
5 *445:4 3.352e-05
6 *445:5 1.74602e-05
7 *445:6 0.00010086
8 *445:7 1.74602e-05

*RES
1 *445:7 *940:Y 8.76079178
2 *445:5 *445:7 0.692458
3 *445:6 *445:5 8.76079178
4 *445:4 *783:A 8.76079178
5 *445:3 *445:6 6.60495
6 *445:2 *445:4 1.54907
7 *445:2 *445:3 8.76079178
*END

*D_NET *446 0.000247821

*CONN
*I *570:A I *C 952.5 333.545 *L 0.00021 *D BUFX2
*I *930:Y O *C 951.405 333.165 *L 0 *D AOI22XL

*CAP
1 *570:A 2.26701e-05
2 *930:Y 2.26701e-05
3 *446:2 4.979e-05
4 *446:3 4.95104e-05
5 *446:4 4.95104e-05
6 *446:5 4.27905e-05
7 *446:6 1.08803e-05

*RES
1 *446:6 *570:A 8.76079178
2 *446:5 *446:6 0.13515
3 *446:4 *446:5 3.23904
4 *446:3 *446:4 0.678154
5 *446:2 *446:3 3.23904
6 *930:Y *446:2 8.76079178
*END

*D_NET *447 0.00023519

*CONN
*I *568:A I *C 1327.5 646.475 *L 0.00021 *D BUFX2
*I *929:Y O *C 1326.405 646.855 *L 0 *D AOI22XL

*CAP
1 *568:A 2.26696e-05
2 *929:Y 2.26696e-05
3 *447:2 1.55305e-05
4 *447:3 1.55305e-05
5 *447:5 1.78901e-05
6 *447:6 7.045e-05
7 *447:7 7.045e-05

*RES
1 *447:2 *568:A 8.76079178
2 *447:3 *447:2 0.497687
3 *447:7 *447:3 8.76079178
4 *447:6 *447:7 5.4771
5 *447:5 *447:6 8.76079178
6 *447:5 *929:Y 8.76079178
7 *447:4 *447:5 0.215892
*END

*D_NET *448 0.0002217

*CONN
*I *657:A I *C 1781.1 1325.535 *L 0.000801 *D INVX2
*I *926:Y O *C 1781.8051 1327.4351 *L 0 *D AOI22XL

*CAP
1 *657:A 2.26705e-05
2 *926:Y 9.83967e-06
3 *448:2 5.882e-05
4 *448:3 6.35e-05
5 *448:4 2.25406e-05
6 *448:5 2.64697e-05
7 *448:6 1.78596e-05

*RES
1 *448:5 *926:Y 0.612651
2 *448:6 *448:5 8.76079178
3 *448:4 *448:6 0.670267
4 *448:3 *448:4 1.07144
5 *448:2 *448:3 5.42817
6 *657:A *448:2 8.76079178
*END

*D_NET *449 0.000298098

*CONN
*I *567:A I *C 1328.1 583.205 *L 0.00021 *D BUFX2
*I *925:Y O *C 1327.005 582.825 *L 0 *D AOI22XL

*CAP
1 *567:A 2.26691e-05
2 *925:Y 2.26691e-05
3 *449:2 2.84196e-05
4 *449:3 2.84196e-05
5 *449:4 1.953e-05
6 *449:5 7.843e-05
7 *449:6 1.953e-05
8 *449:7 7.843e-05

*RES
1 *449:2 *567:A 8.76079178
2 *449:3 *449:2 1.47515
3 *449:7 *449:3 8.76079178
4 *449:5 *449:7 4.26543
5 *449:6 *925:Y 8.76079178
6 *449:4 *449:5 8.76079178
7 *449:4 *449:6 0.734032
*END

*D_NET *450 0.00041114

*CONN
*I *560:A I *C 1781.1 1137.245 *L 0.00021 *D BUFX2
*I *924:Y O *C 1782.205 1139.335 *L 0 *D AOI22XL

*CAP
1 *560:A 9.911e-06
2 *924:Y 2.26703e-05
3 *450:2 2.06296e-05
4 *450:3 6.14397e-05
5 *450:4 3.14398e-05
6 *450:5 2.67601e-05
7 *450:6 6.35709e-05
8 *450:7 8.50203e-05
9 *450:8 8.97e-05

*RES
1 *450:5 *924:Y 8.76079178
2 *450:4 *450:5 1.34548
3 *450:4 *450:8 1.07104
4 *450:7 *450:8 4.88918
5 *450:6 *450:7 8.76079178
6 *450:3 *450:6 3.04334
7 *450:2 *450:3 1.00032
8 *560:A *450:2 0.608641
*END

*D_NET *451 0.000343159

*CONN
*I *573:A I *C 1782.3 1082.525 *L 0.00021 *D BUFX2
*I *923:Y O *C 1781.605 1081.1949 *L 0 *D AOI22XL

*CAP
1 *573:A 2.26694e-05
2 *923:Y 2.26694e-05
3 *451:2 8.433e-05
4 *451:3 8.433e-05
5 *451:5 5.39797e-05
6 *451:6 1.05993e-05
7 *451:7 5.39797e-05
8 *451:8 1.05993e-05

*RES
1 *451:3 *923:Y 8.76079178
2 *451:3 *451:2 5.74232
3 *451:5 *451:2 8.76079178
4 *451:8 *573:A 8.76079178
5 *451:5 *451:7 2.80873
6 *451:6 *451:8 0.124188
7 *451:6 *451:7 8.76079178
8 *451:4 *451:6 0.832687
*END

*D_NET *452 0.000515441

*CONN
*I *572:A I *C 1782.1 1197.095 *L 0.00021 *D BUFX2
*I *922:Y O *C 1782.205 1200.895 *L 0 *D AOI22XL

*CAP
1 *572:A 2.26706e-05
2 *922:Y 2.26706e-05
3 *452:2 5.3919e-05
4 *452:3 5.85995e-05
5 *452:4 4.04913e-05
6 *452:5 3.58108e-05
7 *452:6 0.00014064
8 *452:7 0.00014064

*RES
1 *452:5 *922:Y 8.76079178
2 *452:4 *452:5 2.02043
3 *452:4 *452:7 1.07224
4 *452:6 *452:7 8.11619
5 *452:3 *452:6 1.07237
6 *452:2 *452:3 3.06419
7 *572:A *452:2 8.76079178
*END

*D_NET *453 0.00030666

*CONN
*I *571:A I *C 1781.5 1265.495 *L 0.00021 *D BUFX2
*I *921:Y O *C 1782.205 1266.825 *L 0 *D AOI22XL

*CAP
1 *571:A 9.90932e-06
2 *921:Y 2.26702e-05
3 *453:2 1.25007e-05
4 *453:3 2.53503e-05
5 *453:4 3.56102e-05
6 *453:5 0.00010031
7 *453:6 0.00010031

*RES
1 *453:6 *921:Y 8.76079178
2 *453:5 *453:6 5.71344
3 *453:4 *453:5 8.76079178
4 *453:3 *453:4 1.21795
5 *453:2 *453:3 0.241558
6 *571:A *453:2 0.611181
*END

*D_NET *454 0.00423867

*CONN
*I *807:A I *C 293.7 579.975 *L 0.0012 *D INVX3
*I *937:Y O *C 251.54 579.885 *L 0 *D AND2X1

*CAP
1 *807:A 2.26827e-05
2 *937:Y 0.000180329
3 *454:4 0.000193195
4 *454:5 1.78906e-05
5 *454:6 0.00190334
6 *454:7 1.78906e-05
7 *454:8 0.00190334

*RES
1 *454:7 *807:A 8.76128
2 *454:3 *454:7 1.02229
3 *454:8 *454:7 8.76128
4 *454:6 *454:8 136.449478
5 *937:Y *454:4 10.2708
6 *454:5 *454:6 8.76128
7 *454:5 *454:4 8.76128
8 *454:2 *454:5 1.01812
*END

*D_NET *455 0.00013616

*CONN
*I *645:A I *C 1780.3 1446.5649 *L 0.000395 *D INVX1
*I *920:Y O *C 1781.605 1447.135 *L 0 *D AOI22XL

*CAP
1 *455:2 6.808e-05
2 *455:3 6.808e-05

*RES
1 *455:3 *920:Y 8.76079178
2 *455:2 *455:3 5.35599
3 *645:A *455:2 8.76079178
*END

*D_NET *456 0.000253039

*CONN
*I *726:A I *C 1392.9 1508.125 *L 0.000801 *D INVX2
*I *919:Y O *C 1393.005 1509.645 *L 0 *D AOI22XL

*CAP
1 *726:A 2.267e-05
2 *919:Y 2.267e-05
3 *456:2 0.00010385
4 *456:3 0.00010385

*RES
1 *456:3 *919:Y 8.76079178
2 *456:2 *456:3 6.44052
3 *726:A *456:2 8.76079178
*END

*D_NET *457 0.0002492

*CONN
*I *695:A I *C 1509.7 1326.865 *L 0.0012 *D INVX3
*I *918:Y O *C 1509.605 1328.385 *L 0 *D AOI22XL

*CAP
1 *695:A 2.26699e-05
2 *918:Y 2.26699e-05
3 *457:2 7.597e-05
4 *457:3 7.1289e-05
5 *457:4 2.59597e-05
6 *457:5 3.06396e-05

*RES
1 *457:4 *695:A 8.76079178
2 *457:4 *457:5 1.34521
3 *457:3 *918:Y 8.76079178
4 *457:2 *457:5 1.07973
5 *457:2 *457:3 4.72743
*END

*D_NET *458 0.00031335

*CONN
*I *558:A I *C 1781.7 831.155 *L 0.00021 *D BUFX2
*I *917:Y O *C 1780.605 831.535 *L 0 *D AOI22XL

*CAP
1 *558:A 9.84059e-06
2 *917:Y 2.26708e-05
3 *458:2 1.98002e-05
4 *458:3 1.98002e-05
5 *458:5 1.78906e-05
6 *458:6 7.498e-05
7 *458:7 1.24297e-05
8 *458:8 2.53503e-05
9 *458:9 3.56096e-05
10 *458:10 7.498e-05

*RES
1 *558:A *458:7 0.615993
2 *458:7 *458:8 0.24343
3 *458:8 *458:9 1.22757
4 *458:3 *458:9 8.76079178
5 *458:3 *458:2 0.733096
6 *458:10 *458:2 8.76079178
7 *458:6 *458:10 7.64564
8 *458:5 *458:6 8.76079178
9 *458:5 *917:Y 8.76079178
10 *458:4 *458:5 1.01596
*END

*D_NET *459 0.000527384

*CONN
*I *562:A I *C 1639.7 1448.465 *L 0.00021 *D BUFX2
*I *916:Y O *C 1636.605 1448.085 *L 0 *D AOI22XL

*CAP
1 *562:A 2.26704e-05
2 *916:Y 2.26704e-05
3 *459:2 1.98006e-05
4 *459:3 1.98006e-05
5 *459:4 8.29999e-05
6 *459:5 7.82306e-05
7 *459:6 8.699e-05
8 *459:7 7.82306e-05
9 *459:8 3.24505e-05
10 *459:9 2.75405e-05
11 *459:10 2.84604e-05
12 *459:11 2.75405e-05

*RES
1 *459:11 *562:A 8.76079178
2 *459:9 *459:11 1.46913
3 *459:10 *459:9 8.76079178
4 *459:8 *459:10 1.41593
5 *459:7 *459:8 1.02572
6 *459:5 *459:7 5.15132
7 *459:5 *459:6 1.02572
8 *459:4 *459:6 4.95588
9 *459:2 *916:Y 8.76079178
10 *459:3 *459:4 8.76079178
11 *459:3 *459:2 0.73724
*END

*D_NET *460 0.000241711

*CONN
*I *559:A I *C 1778.1 1019.255 *L 0.00021 *D BUFX2
*I *915:Y O *C 1777.005 1019.635 *L 0 *D AOI22XL

*CAP
1 *559:A 2.26702e-05
2 *915:Y 2.26702e-05
3 *460:2 1.91798e-05
4 *460:3 1.91798e-05
5 *460:5 1.78905e-05
6 *460:6 7.006e-05
7 *460:7 7.006e-05

*RES
1 *460:3 *559:A 8.76079178
2 *460:3 *460:2 0.796326
3 *460:7 *460:2 8.76079178
4 *460:6 *460:7 4.22573
5 *460:5 *460:6 8.76079178
6 *460:5 *915:Y 8.76079178
7 *460:4 *460:5 1.01382
*END

*D_NET *461 0.000360739

*CONN
*I *561:A I *C 1572.1 1385.1949 *L 0.00021 *D BUFX2
*I *914:Y O *C 1575.005 1385.575 *L 0 *D AOI22XL

*CAP
1 *561:A 9.90992e-06
2 *914:Y 2.26704e-05
3 *461:2 9.94696e-05
4 *461:3 2.02602e-05
5 *461:4 0.00010197
6 *461:5 5.32295e-05
7 *461:6 5.32295e-05

*RES
1 *461:6 *914:Y 8.76079178
2 *461:5 *461:6 3.23904
3 *461:4 *461:5 8.76079178
4 *461:2 *461:4 5.39288
5 *461:2 *461:3 0.950726
6 *561:A *461:3 0.59915
*END

*D_NET *462 0.00022972

*CONN
*I *625:A I *C 1781.1 891.195 *L 0.000801 *D INVX2
*I *913:Y O *C 1781.005 893.095 *L 0 *D AOI22XL

*CAP
1 *625:A 2.04398e-05
2 *913:Y 2.26703e-05
3 *462:2 4.853e-05
4 *462:3 4.472e-05
5 *462:4 4.66802e-05
6 *462:5 4.66802e-05

*RES
1 *462:5 *913:Y 8.76079178
2 *462:4 *462:5 4.31957
3 *462:3 *462:4 8.76079178
4 *462:2 *625:A 1.21715
5 *462:2 *462:3 2.62091
*END

*D_NET *463 0.000297199

*CONN
*I *761:A I *C 251.1 331.645 *L 0.0012 *D INVX3
*I *934:Y O *C 250.52 333.875 *L 0 *D NOR2BX1

*CAP
1 *761:A 3.96089e-05
2 *934:Y 2.267e-05
3 *463:2 5.24592e-05
4 *463:3 9.123e-05
5 *463:4 9.123e-05

*RES
1 *463:4 *934:Y 8.76079178
2 *463:3 *463:4 6.22196
3 *463:2 *761:A 2.41678
4 *463:2 *463:3 8.76079178
*END

*D_NET *464 0.00463

*CONN
*I *748:A I *C 251.785 562.725 *L 0.00161 *D INVX4
*I *932:Y O *C 251.74 519.63 *L 0 *D OA21X1

*CAP
1 *748:A 2.26692e-05
2 *932:Y 2.26692e-05
3 *464:2 0.00141561
4 *464:3 0.00142029
5 *464:4 0.000143232
6 *464:5 0.000138551
7 *464:6 6.14841e-05
8 *464:7 6.61653e-05
9 *464:8 4.74839e-05
10 *464:9 2.25608e-05
11 *464:10 4.74839e-05
12 *464:2 *290:6 0.00028173
13 *464:3 *290:7 0.00028173
14 *464:4 *290:6 7.89e-06
15 *464:5 *290:7 7.89000503e-06
16 *464:2 *26:13 0.00025664
17 *464:3 *26:12 0.00025664
18 *464:4 *26:2 3.859e-05
19 *464:5 *26:3 3.859e-05
20 *464:2 *26:7 9.42e-06
21 *464:3 *26:6 9.42e-06
22 *464:4 *26:7 8.24e-06
23 *464:5 *26:6 8.24e-06
24 *464:6 *26:13 8.4e-06
25 *464:7 *26:12 8.40001646e-06

*RES
1 *464:5 *932:Y 8.76039
2 *464:5 *464:4 11.4266
3 *464:4 *464:3 1.07532
4 *464:3 *464:2 137.910385
5 *464:10 *464:2 8.76039
6 *464:8 *464:10 1.79711
7 *464:6 *748:A 8.76039
8 *464:9 *464:8 8.76039
9 *464:7 *464:6 4.215
10 *464:7 *464:9 1.07532
*END

*D_NET *465 0.00026861

*CONN
*I *557:A I *C 1781.1 954.275 *L 0.00021 *D BUFX2
*I *912:Y O *C 1780.005 954.655 *L 0 *D AOI22XL

*CAP
1 *557:A 9.90919e-06
2 *912:Y 2.26703e-05
3 *465:2 1.78602e-05
4 *465:3 1.78602e-05
5 *465:5 1.789e-05
6 *465:6 6.74e-05
7 *465:7 1.24999e-05
8 *465:8 1.24299e-05
9 *465:9 2.26898e-05
10 *465:10 6.74e-05

*RES
1 *557:A *465:7 0.615726
2 *465:7 *465:8 0.243296
3 *465:8 *465:9 0.613453
4 *465:3 *465:9 8.76079178
5 *465:3 *465:2 0.673876
6 *465:10 *465:2 8.76079178
7 *465:6 *465:10 6.66764
8 *465:5 *465:6 8.76079178
9 *465:5 *912:Y 8.76079178
10 *465:4 *465:5 1.01529
*END

*D_NET *466 0.00038804

*CONN
*I *701:A I *C 1452.9 1265.3051 *L 0.000801 *D INVX2
*I *911:Y O *C 1451.405 1266.825 *L 0 *D AOI22XL

*CAP
1 *701:A 2.10693e-05
2 *911:Y 2.26707e-05
3 *466:2 9.15399e-05
4 *466:3 7.65002e-05
5 *466:4 7.65002e-05
6 *466:5 9.976e-05

*RES
1 *466:4 *911:Y 8.76079178
2 *701:A *466:5 1.93541
3 *466:3 *466:4 4.70804
4 *466:2 *466:5 4.79373
5 *466:2 *466:3 8.76079178
*END

*D_NET *467 0.00024984

*CONN
*I *577:A I *C 951.3 248.045 *L 0.00021 *D BUFX2
*I *910:Y O *C 950.205 247.665 *L 0 *D AOI22XL

*CAP
1 *577:A 2.26702e-05
2 *910:Y 2.26702e-05
3 *467:2 3.61696e-05
4 *467:3 3.72699e-05
5 *467:4 6.45e-05
6 *467:5 5.60398e-05
7 *467:6 1.05202e-05

*RES
1 *467:6 *577:A 8.76079178
2 *467:5 *467:6 0.128466
3 *467:4 *467:5 4.45833
4 *467:3 *467:4 0.694329
5 *467:2 *467:3 2.22923
6 *910:Y *467:2 8.76079178
*END

*D_NET *468 0.000245212

*CONN
*I *563:A I *C 585.7 641.345 *L 0.00021 *D BUFX2
*I *909:Y O *C 584.605 640.965 *L 0 *D AOI22XL

*CAP
1 *563:A 2.267e-05
2 *909:Y 2.267e-05
3 *468:3 1.78905e-05
4 *468:4 7.189e-05
5 *468:5 1.91005e-05
6 *468:6 7.189e-05
7 *468:7 1.91005e-05

*RES
1 *468:7 *563:A 8.76079178
2 *468:5 *468:7 0.799267
3 *468:6 *468:5 8.76079178
4 *468:4 *468:6 4.26543
5 *468:3 *468:4 8.76079178
6 *468:3 *909:Y 8.76079178
7 *468:2 *468:3 1.02184
*END

*D_NET *469 0.00026838

*CONN
*I *633:A I *C 1136.3 703.095 *L 0.000395 *D INVX1
*I *908:Y O *C 1136.405 701.575 *L 0 *D AOI22XL

*CAP
1 *633:A 2.267e-05
2 *908:Y 2.267e-05
3 *469:2 8.93796e-05
4 *469:3 9.406e-05
5 *469:4 2.21404e-05
6 *469:5 1.746e-05

*RES
1 *469:5 *633:A 8.76079178
2 *469:4 *469:5 0.672539
3 *469:3 *469:4 1.07973
4 *469:2 *469:3 6.07825
5 *908:Y *469:2 8.76079178
*END

*D_NET *470 0.00019704

*CONN
*I *574:A I *C 766.1 335.255 *L 0.00021 *D BUFX2
*I *907:Y O *C 766.005 336.585 *L 0 *D AOI22XL

*CAP
1 *574:A 2.26698e-05
2 *907:Y 2.26698e-05
3 *470:2 4.825e-05
4 *470:3 4.35697e-05
5 *470:4 2.75997e-05
6 *470:5 3.228e-05

*RES
1 *470:4 *574:A 8.76079178
2 *470:4 *470:5 3.37914
3 *470:3 *907:Y 8.76079178
4 *470:2 *470:5 1.07973
5 *470:2 *470:3 2.71262
*END

*D_NET *471 0.000235508

*CONN
*I *565:A I *C 1138.5 952.565 *L 0.00021 *D BUFX2
*I *906:Y O *C 1139.605 952.185 *L 0 *D AOI22XL

*CAP
1 *565:A 2.26694e-05
2 *906:Y 2.26694e-05
3 *471:3 1.89498e-05
4 *471:4 6.719e-05
5 *471:5 1.89498e-05
6 *471:6 1.78897e-05
7 *471:7 6.719e-05

*RES
1 *471:5 *565:A 8.76079178
2 *471:3 *471:5 0.83389
3 *471:4 *471:3 8.76079178
4 *471:4 *471:7 3.55453
5 *471:6 *471:7 8.76079178
6 *471:6 *906:Y 8.76079178
7 *471:2 *471:6 1.02184
*END

*D_NET *472 0.00023961

*CONN
*I *575:A I *C 1205.5 1079.105 *L 0.00021 *D BUFX2
*I *905:Y O *C 1204.405 1078.725 *L 0 *D AOI22XL

*CAP
1 *575:A 2.26699e-05
2 *905:Y 2.26699e-05
3 *472:2 1.91502e-05
4 *472:3 1.91502e-05
5 *472:5 1.78902e-05
6 *472:6 6.904e-05
7 *472:7 6.904e-05

*RES
1 *472:2 *575:A 8.76079178
2 *472:3 *472:2 0.799802
3 *472:7 *472:3 8.76079178
4 *472:6 *472:7 4.24792
5 *472:5 *472:6 8.76079178
6 *472:5 *905:Y 8.76079178
7 *472:4 *472:5 1.02184
*END

*D_NET *473 0.00399881

*CONN
*I *737:A I *C 293.7 393.205 *L 0.000801 *D INVX2
*I *938:Y O *C 253.94 393.09 *L 0 *D OA21X1

*CAP
1 *737:A 2.26568e-05
2 *938:Y 2.26568e-05
3 *473:4 1.78744e-05
4 *473:5 0.00195886
5 *473:6 1.78744e-05
6 *473:7 0.00195886

*RES
1 *473:6 *737:A 8.75984
2 *473:3 *473:6 1.02073
3 *473:7 *473:6 8.75984
4 *473:5 *473:7 140.53479
5 *473:4 *473:5 8.75984
6 *473:4 *938:Y 8.75984
7 *473:2 *473:4 1.01859
*END

*D_NET *474 0.000332941

*CONN
*I *556:A I *C 770.9 583.205 *L 0.00021 *D BUFX2
*I *904:Y O *C 769.005 582.825 *L 0 *D AOI22XL

*CAP
1 *556:A 2.26693e-05
2 *904:Y 2.26693e-05
3 *474:2 1.99504e-05
4 *474:3 9.077e-05
5 *474:4 1.99504e-05
6 *474:5 3.30808e-05
7 *474:6 9.077e-05
8 *474:7 3.30808e-05

*RES
1 *474:7 *556:A 8.76079178
2 *474:5 *474:7 1.46913
3 *474:6 *474:5 8.76079178
4 *474:3 *474:6 8.30882
5 *474:4 *904:Y 8.76079178
6 *474:2 *474:3 8.76079178
7 *474:2 *474:4 0.73724
*END

*D_NET *475 0.00032364

*CONN
*I *841:A I *C 249.5 701.005 *L 0.0012 *D INVX3
*I *949:Y O *C 250.72 703.235 *L 0 *D NOR2BX1

*CAP
1 *841:A 2.26699e-05
2 *949:Y 5.53098e-05
3 *475:2 8.875e-05
4 *475:3 6.81602e-05
5 *475:4 8.875e-05

*RES
1 *475:3 *949:Y 2.97008
2 *475:4 *475:3 8.76079178
3 *475:2 *475:4 6.27476
4 *841:A *475:2 8.76079178
*END

*D_NET *476 0.000174601

*CONN
*I *603:A I *C 826.7 248.235 *L 0.000801 *D INVX2
*I *903:Y O *C 826.205 247.665 *L 0 *D AOI22XL

*CAP
1 *603:A 2.26703e-05
2 *903:Y 2.26703e-05
3 *476:2 2.37801e-05
4 *476:3 5.569e-05
5 *476:4 4.979e-05

*RES
1 *476:4 *603:A 8.76079178
2 *476:3 *476:4 3.34371
3 *476:2 *476:3 1.60201
4 *903:Y *476:2 8.76079178
*END

*D_NET *477 0.000246779

*CONN
*I *564:A I *C 1013.9 335.255 *L 0.00021 *D BUFX2
*I *902:Y O *C 1012.805 335.635 *L 0 *D AOI22XL

*CAP
1 *564:A 2.26701e-05
2 *902:Y 2.26701e-05
3 *477:2 4.979e-05
4 *477:3 4.93699e-05
5 *477:4 4.93699e-05
6 *477:5 1.04997e-05
7 *477:6 4.24098e-05

*RES
1 *477:5 *564:A 8.76079178
2 *477:5 *477:6 0.123921
3 *477:3 *477:6 3.23904
4 *477:3 *477:4 0.672539
5 *477:2 *477:4 3.23904
6 *902:Y *477:2 8.76079178
*END

*D_NET *478 0.00024682

*CONN
*I *566:A I *C 893.7 708.035 *L 0.00021 *D BUFX2
*I *901:Y O *C 892.605 708.415 *L 0 *D AOI22XL

*CAP
1 *566:A 2.26701e-05
2 *901:Y 2.26701e-05
3 *478:2 4.979e-05
4 *478:3 4.93699e-05
5 *478:4 4.93699e-05
6 *478:5 1.05202e-05
7 *478:6 4.24303e-05

*RES
1 *478:5 *566:A 8.76079178
2 *478:5 *478:6 0.124455
3 *478:3 *478:6 3.23904
4 *478:3 *478:4 0.672539
5 *478:2 *478:4 3.23904
6 *901:Y *478:2 8.76079178
*END

*D_NET *479 1.968e-05

*CONN
*I *706:A I *C 250.1 641.535 *L 0.000801 *D INVX2
*I *927:Y O *C 249.94 641.445 *L 0 *D AND2X1

*CAP
1 *706:A 9.84e-06
2 *927:Y 9.84e-06

*RES
1 *927:Y *706:A 0.594022
*END

*D_NET *480 0.000194081

*CONN
*I *609:A I *C 893.5 249.565 *L 0.000801 *D INVX2
*I *900:Y O *C 893.605 247.665 *L 0 *D AOI22XL

*CAP
1 *609:A 2.26705e-05
2 *900:Y 2.26705e-05
3 *480:2 3.521e-05
4 *480:3 3.9890188e-05
5 *480:4 3.91598e-05
6 *480:5 3.44802e-05

*RES
1 *480:5 *609:A 8.76079178
2 *480:4 *480:5 2.0747
3 *480:3 *480:4 1.1102
4 *480:2 *480:3 3.28089
5 *900:Y *480:2 8.76079178
*END

*D_NET *481 0.00438258

*CONN
*I *794:A I *C 292.5 460.275 *L 0.000395 *D INVX1
*I *941:Y O *C 250.34 458.275 *L 0 *D AND2X1

*CAP
1 *794:A 1.9669e-05
2 *941:Y 8.90693e-05
3 *481:2 1.79468e-05
4 *481:3 1.79468e-05
5 *481:4 0.00010191
6 *481:5 0.00198004
7 *481:6 7.17268e-05
8 *481:7 0.00198004
9 *481:8 3.25097e-05
10 *481:9 7.17268e-05

*RES
1 *481:8 *794:A 1.1994
2 *481:9 *481:8 8.76033
3 *481:6 *481:9 4.70914
4 *481:7 *481:6 8.76033
5 *481:5 *481:7 141.373383
6 *481:2 *481:5 8.76033
7 *481:3 *481:2 0.675199
8 *481:4 *481:3 8.76033
9 *941:Y *481:4 4.83426
*END

*D_NET *482 0.000185521

*CONN
*I *683:A I *C 1080.9 891.195 *L 0.000801 *D INVX2
*I *899:Y O *C 1080.405 890.625 *L 0 *D AOI22XL

*CAP
1 *683:A 2.26706e-05
2 *899:Y 2.26706e-05
3 *482:4 1.78907e-05
4 *482:5 5.22e-05
5 *482:6 1.78907e-05
6 *482:7 5.22e-05

*RES
1 *482:6 *683:A 8.76079178
2 *482:3 *482:6 1.02184
3 *482:7 *482:6 8.76079178
4 *482:5 *482:7 3.01406
5 *482:4 *482:5 8.76079178
6 *482:4 *899:Y 8.76079178
7 *482:2 *482:4 1.02184
*END

*D_NET *483 0.000216021

*CONN
*I *769:A I *C 1134.7 331.645 *L 0.0012 *D INVX3
*I *928:Y O *C 1134.9399 330.25 *L 0 *D AOI21XL

*CAP
1 *769:A 2.26701e-05
2 *928:Y 2.26701e-05
3 *483:2 5.938e-05
4 *483:3 5.47001e-05
5 *483:4 2.59601e-05
6 *483:5 3.064e-05

*RES
1 *483:4 *928:Y 8.76079178
2 *483:3 *769:A 8.76079178
3 *483:4 *483:5 1.34521
4 *483:2 *483:3 3.36296
5 *483:2 *483:5 1.07973
*END

*D_NET *484 0.000260388

*CONN
*I *576:A I *C 1204.9 1019.255 *L 0.00021 *D BUFX2
*I *898:Y O *C 1203.8051 1019.635 *L 0 *D AOI22XL

*CAP
1 *576:A 2.26695e-05
2 *898:Y 2.26695e-05
3 *484:4 1.78902e-05
4 *484:5 8.808e-05
5 *484:6 1.04994e-05
6 *484:7 1.04994e-05
7 *484:8 8.808e-05

*RES
1 *484:6 *576:A 8.76079178
2 *484:3 *484:6 0.838034
3 *484:6 *484:7 0.123921
4 *484:8 *484:7 8.76079178
5 *484:5 *484:8 4.95588
6 *484:4 *484:5 8.76079178
7 *484:4 *898:Y 8.76079178
8 *484:2 *484:4 1.02184
*END

*D_NET *485 0.00020468

*CONN
*I *615:A I *C 1074.1 764.655 *L 0.000801 *D INVX2
*I *897:Y O *C 1074.205 766.555 *L 0 *D AOI22XL

*CAP
1 *615:A 2.26697e-05
2 *897:Y 2.26697e-05
3 *485:2 4.36700928e-05
4 *485:3 3.89902e-05
5 *485:4 3.60003e-05
6 *485:5 4.06801e-05

*RES
1 *485:4 *615:A 8.76079178
2 *485:4 *485:5 2.03446
3 *485:3 *897:Y 8.76079178
4 *485:2 *485:5 1.07973
5 *485:2 *485:3 3.44558
*END

