*SPEF "IEEE 1481-1998"
*DESIGN "dut"
*DATE "Thu Sep  3 12:12:13 2026"
*VENDOR "Cadence Design Systems, Inc."
*PROGRAM "Innovus"
*VERSION "21.15-s110_1"
*DESIGN_FLOW "COUPLING C" "PIN_CAP NONE" "NAME_SCOPE LOCAL"
*DIVIDER /
*DELIMITER :
*BUS_DELIMITER []
*T_UNIT 1 NS
*C_UNIT 1 PF
*R_UNIT 1 OHM
*L_UNIT 1 HENRY

// MMMC spef file for corner 'rc'

*NAME_MAP

*1 FE_ECON36_n_19
*2 clk
*3 rst
*4 display_data[63]
*5 display_data[62]
*6 display_data[61]
*7 display_data[60]
*8 display_data[59]
*9 display_data[58]
*10 display_data[57]
*11 display_data[56]
*12 display_data[55]
*13 display_data[54]
*14 display_data[53]
*15 display_data[52]
*16 display_data[51]
*17 display_data[50]
*18 display_data[49]
*19 display_data[48]
*20 display_data[47]
*21 display_data[46]
*22 display_data[45]
*23 display_data[44]
*24 display_data[43]
*25 display_data[42]
*26 display_data[41]
*27 display_data[40]
*28 display_data[39]
*29 display_data[38]
*30 display_data[37]
*31 display_data[36]
*32 display_data[35]
*33 display_data[34]
*34 display_data[33]
*35 display_data[32]
*36 display_data[31]
*37 display_data[30]
*38 display_data[29]
*39 display_data[28]
*40 display_data[27]
*41 display_data[26]
*42 display_data[25]
*43 display_data[24]
*44 display_data[23]
*45 display_data[22]
*46 display_data[21]
*47 display_data[20]
*48 display_data[19]
*49 display_data[18]
*50 display_data[17]
*51 display_data[16]
*52 display_data[15]
*53 display_data[14]
*54 display_data[13]
*55 display_data[12]
*56 display_data[11]
*57 display_data[10]
*58 display_data[9]
*59 display_data[8]
*60 display_data[7]
*61 display_data[6]
*62 display_data[5]
*63 display_data[4]
*64 display_data[3]
*65 display_data[2]
*66 display_data[1]
*67 display_data[0]
*68 brightness[3]
*69 brightness[2]
*70 brightness[1]
*71 brightness[0]
*72 row[7]
*73 row[6]
*74 row[5]
*75 row[4]
*76 row[3]
*77 row[2]
*78 row[1]
*79 row[0]
*80 col[7]
*81 col[6]
*82 col[5]
*83 col[4]
*84 col[3]
*85 col[2]
*86 col[1]
*87 col[0]
*88 FE_ECON35_n_19
*89 FE_ECON32_n_0
*90 FE_ECON31_n_0
*91 FE_ECON30_n_0
*92 FE_ECON29_n_19
*93 FE_ECON28_n_19
*94 FE_ECON27_n_19
*95 FE_ECON26_n_25
*96 FE_ECON25_n_25
*97 FE_ECON24_n_25
*98 FE_ECON23_n_25
*99 FE_ECON22_n_25
*100 FE_ECON21_n_25
*101 FE_ECON20_n_25
*102 FE_ECON19_n_25
*103 FE_ECON18_n_25
*104 FE_ECON16_n_9
*105 FE_ECON15_n_9
*106 FE_ECON14_n_9
*107 FE_ECON13_n_9
*108 FE_ECON12_n_9
*109 FE_ECON11_n_9
*110 FE_ECON10_n_9
*111 FE_ECON9_n_9
*112 FE_ECON8_n_9
*113 FE_ECON7_n_9
*114 FE_ECON6_n_9
*115 FE_ECON5_n_9
*116 FE_ECON4_n_9
*117 FE_ECON3_n_0
*118 FE_ECON2_n_0
*119 FE_ECON1_n_0
*120 FE_ECON0_n_19
*121 FE_OFN333_n_58
*122 FE_OFN332_n_49
*123 FE_OFN331_n_42
*124 FE_OFN330_n_44
*125 FE_OFN329_n_34
*126 FE_OFN328_n_45
*127 FE_OFN327_n_43
*128 FE_OFN326_n_52
*129 FE_OFN325_n_61
*130 FE_OFN324_n_55
*131 FE_OFN323_n_62
*132 FE_OFN322_n_33
*133 FE_OFN321_n_30
*134 FE_OFN320_n_11
*135 FE_OFN319_n_29
*136 FE_OFN318_n_37
*137 FE_OFN317_n_36
*138 FE_OFN316_n_35
*139 FE_OFN315_n_54
*140 FE_OFN314_n_56
*141 FE_OFN313_n_68
*142 FE_OFN312_n_51
*143 FE_OFN311_n_7
*144 FE_OFN310_n_7
*145 FE_OFN309_n_7
*146 FE_OFN308_n_7
*147 FE_OFN307_n_61
*148 FE_OFN306_n_61
*149 FE_OFN305_n_61
*150 FE_OFN304_n_61
*151 FE_OFN303_n_62
*152 FE_OFN302_n_62
*153 FE_OFN301_n_62
*154 FE_OFN300_n_62
*155 FE_OFN299_n_58
*156 FE_OFN298_n_58
*157 FE_OFN297_n_58
*158 FE_OFN296_n_58
*159 FE_OFN295_n_51
*160 FE_OFN294_n_51
*161 FE_OFN293_n_51
*162 FE_OFN292_n_51
*163 FE_OFN291_n_60
*164 FE_OFN290_n_60
*165 FE_OFN289_n_60
*166 FE_OFN288_n_60
*167 FE_OFN287_n_60
*168 FE_OFN286_n_60
*169 FE_OFN285_n_64
*170 FE_OFN284_n_64
*171 FE_OFN283_n_64
*172 FE_OFN282_n_64
*173 FE_OFN281_n_64
*174 FE_OFN280_n_64
*175 FE_OFN279_n_69
*176 FE_OFN278_n_69
*177 FE_OFN277_n_69
*178 FE_OFN276_n_69
*179 FE_OFN275_n_69
*180 FE_OFN274_n_69
*181 FE_OFN273_n_52
*182 FE_OFN272_n_52
*183 FE_OFN271_n_52
*184 FE_OFN270_n_52
*185 FE_OFN269_n_52
*186 FE_OFN268_n_52
*187 FE_OFN267_n_49
*188 FE_OFN266_n_49
*189 FE_OFN265_n_46
*190 FE_OFN264_n_46
*191 FE_OFN263_n_42
*192 FE_OFN262_n_42
*193 FE_OFN261_n_44
*194 FE_OFN260_n_44
*195 FE_OFN259_n_53
*196 FE_OFN258_n_53
*197 FE_OFN257_n_53
*198 FE_OFN256_n_53
*199 FE_OFN255_n_36
*200 FE_OFN254_n_36
*201 FE_OFN253_n_36
*202 FE_OFN252_n_36
*203 FE_OFN251_n_37
*204 FE_OFN250_n_37
*205 FE_OFN249_n_37
*206 FE_OFN248_n_37
*207 FE_OFN247_n_39
*208 FE_OFN246_n_39
*209 FE_OFN245_n_39
*210 FE_OFN244_n_39
*211 FE_OFN243_n_34
*212 FE_OFN242_n_34
*213 FE_OFN241_n_34
*214 FE_OFN240_n_34
*215 FE_OFN239_n_35
*216 FE_OFN238_n_35
*217 FE_OFN237_n_35
*218 FE_OFN236_n_35
*219 FE_OFN235_n_32
*220 FE_OFN234_n_32
*221 FE_OFN233_n_32
*222 FE_OFN232_n_32
*223 FE_OFN231_n_54
*224 FE_OFN230_n_54
*225 FE_OFN229_n_54
*226 FE_OFN228_n_54
*227 FE_OFN227_n_56
*228 FE_OFN226_n_56
*229 FE_OFN225_n_56
*230 FE_OFN224_n_56
*231 FE_OFN223_n_68
*232 FE_OFN222_n_68
*233 FE_OFN221_n_68
*234 FE_OFN220_n_68
*235 FE_OFN219_n_43
*236 FE_OFN218_n_43
*237 FE_OFN217_n_43
*238 FE_OFN216_n_43
*239 FE_OFN215_n_55
*240 FE_OFN214_n_55
*241 FE_OFN213_n_55
*242 FE_OFN212_n_55
*243 FE_OFN211_n_66
*244 FE_OFN210_n_66
*245 FE_OFN209_n_66
*246 FE_OFN208_n_66
*247 FE_OFN207_n_66
*248 FE_OFN206_n_66
*249 FE_OFN205_n_45
*250 FE_OFN204_n_45
*251 FE_OFN203_n_45
*252 FE_OFN202_n_45
*253 FE_OFN201_n_45
*254 FE_OFN200_n_45
*255 FE_OFN199_n_41
*256 FE_OFN198_n_41
*257 FE_OFN197_n_41
*258 FE_OFN196_n_41
*259 FE_OFN195_n_41
*260 FE_OFN194_n_41
*261 FE_OFN193_n_50
*262 FE_OFN192_n_50
*263 FE_OFN191_n_50
*264 FE_OFN190_n_50
*265 FE_OFN189_n_50
*266 FE_OFN188_n_50
*267 FE_OFN187_n_63
*268 FE_OFN186_n_63
*269 FE_OFN185_n_63
*270 FE_OFN184_n_63
*271 FE_OFN183_n_63
*272 FE_OFN182_n_30
*273 FE_OFN181_n_30
*274 FE_OFN180_n_33
*275 FE_OFN179_n_33
*276 FE_OFN178_n_24
*277 FE_OFN177_n_24
*278 FE_OFN176_n_24
*279 FE_OFN175_n_24
*280 FE_OFN174_n_24
*281 FE_OFN173_n_24
*282 FE_OFN172_n_29
*283 FE_OFN171_n_29
*284 FE_OFN170_n_29
*285 FE_OFN169_n_29
*286 FE_OFN168_n_40
*287 FE_OFN167_n_40
*288 FE_OFN166_n_40
*289 FE_OFN165_n_40
*290 FE_OFN164_n_40
*291 FE_OFN163_n_40
*292 FE_OFN162_n_57
*293 FE_OFN161_n_57
*294 FE_OFN160_n_57
*295 FE_OFN159_n_57
*296 FE_OFN158_n_57
*297 FE_OFN157_n_57
*298 FE_OFN156_n_57
*299 FE_OFN155_n_57
*300 FE_OFN154_n_57
*301 FE_OFN153_n_57
*302 FE_OFN152_n_57
*303 FE_OFN151_n_48
*304 FE_OFN150_n_48
*305 FE_OFN149_n_48
*306 FE_OFN148_n_48
*307 FE_OFN147_n_48
*308 FE_OFN146_n_48
*309 FE_OFN145_n_48
*310 FE_OFN144_n_48
*311 FE_OFN143_n_48
*312 FE_OFN142_n_48
*313 FE_OFN141_n_48
*314 FE_OFN140_n_47
*315 FE_OFN139_n_47
*316 FE_OFN138_n_47
*317 FE_OFN137_n_47
*318 FE_OFN136_n_47
*319 FE_OFN135_n_47
*320 FE_OFN134_n_47
*321 FE_OFN133_n_47
*322 FE_OFN132_n_47
*323 FE_OFN131_n_47
*324 FE_OFN130_n_47
*325 FE_OFN129_n_47
*326 FE_OFN128_n_47
*327 FE_OFN127_n_67
*328 FE_OFN126_n_67
*329 FE_OFN125_n_67
*330 FE_OFN124_n_67
*331 FE_OFN123_n_67
*332 FE_OFN122_n_67
*333 FE_OFN121_n_67
*334 FE_OFN120_n_67
*335 FE_OFN119_n_13
*336 FE_OFN118_n_13
*337 FE_OFN117_n_13
*338 FE_OFN116_n_13
*339 FE_OFN115_n_23
*340 FE_OFN114_n_23
*341 FE_OFN113_n_23
*342 FE_OFN112_n_23
*343 FE_OFN111_n_23
*344 FE_OFN110_n_23
*345 FE_OFN109_n_26
*346 FE_OFN108_n_26
*347 FE_OFN107_n_26
*348 FE_OFN106_n_26
*349 FE_OFN105_n_65
*350 FE_OFN104_n_65
*351 FE_OFN103_n_65
*352 FE_OFN102_n_65
*353 FE_OFN101_n_65
*354 FE_OFN100_n_65
*355 FE_OFN99_n_65
*356 FE_OFN98_n_65
*357 FE_OFN97_n_65
*358 FE_OFN96_n_65
*359 FE_OFN95_n_65
*360 FE_OFN94_n_38
*361 FE_OFN93_n_38
*362 FE_OFN92_n_38
*363 FE_OFN91_n_38
*364 FE_OFN90_n_38
*365 FE_OFN89_n_38
*366 FE_OFN88_n_38
*367 FE_OFN87_n_38
*368 FE_OFN86_n_38
*369 FE_OFN85_n_38
*370 FE_OFN84_n_38
*371 FE_OFN83_n_38
*372 FE_OFN82_n_38
*373 FE_OFN81_n_16
*374 FE_OFN80_n_16
*375 FE_OFN79_n_16
*376 FE_OFN78_n_16
*377 FE_OFN77_n_12
*378 FE_OFN76_n_12
*379 FE_OFN75_n_12
*380 FE_OFN74_n_11
*381 FE_OFN73_n_11
*382 FE_OFN72_n_11
*383 FE_OFN71_n_11
*384 FE_OFN70_n_11
*385 FE_OFN69_n_11
*386 FE_OFN68_n_21
*387 FE_OFN67_n_21
*388 FE_OFN66_n_21
*389 FE_OFN65_n_21
*390 FE_OFN64_n_21
*391 FE_OFN63_n_21
*392 FE_OFN62_n_18
*393 FE_OFN61_n_18
*394 FE_OFN60_n_18
*395 FE_OFN59_n_18
*396 FE_OFN58_n_18
*397 FE_OFN57_n_59
*398 FE_OFN56_n_59
*399 FE_OFN55_n_59
*400 FE_OFN54_n_59
*401 FE_OFN53_n_59
*402 FE_OFN52_n_59
*403 FE_OFN51_n_59
*404 FE_OFN50_n_59
*405 FE_OFN49_n_59
*406 FE_OFN48_n_59
*407 FE_OFN47_n_2
*408 FE_OFN46_n_6
*409 FE_OFN45_n_6
*410 FE_OFN44_n_3
*411 FE_OFN43_n_3
*412 FE_OFN42_n_1
*413 FE_OFN41_n_1
*414 FE_OFN40_n_1
*415 FE_OFN39_n_1
*416 FE_OFN38_n_1
*417 FE_OFN37_n_4
*418 FE_OFN36_n_4
*419 FE_OFN35_n_4
*420 FE_OFN34_n_4
*421 FE_OFN33_n_4
*422 FE_OFN32_n_4
*423 FE_OFN31_n_4
*424 FE_OFN30_n_14
*425 FE_OFN29_n_14
*426 FE_OFN28_n_14
*427 FE_OFN27_n_14
*428 FE_OFN26_n_14
*429 FE_OFN25_n_14
*430 FE_OFN24_n_14
*431 FE_OFN23_scan_count_1
*432 FE_OFN22_scan_count_1
*433 FE_OFN21_scan_count_1
*434 FE_OFN19_scan_count_0
*435 FE_OFN18_scan_count_0
*436 FE_OFN17_scan_count_2
*437 FE_OFN16_scan_count_2
*438 FE_OFN15_scan_count_2
*439 FE_OFN14_scan_count_2
*440 FE_OFN13_scan_count_2
*441 FE_OFN12_scan_count_2
*442 FE_OFN11_pwm_count_3
*443 FE_OFN10_pwm_count_3
*444 FE_OFN9_pwm_count_3
*445 FE_OFN8_pwm_count_3
*446 FE_OFN7_pwm_count_3
*447 FE_OFN6_pwm_count_3
*448 FE_OFN5_pwm_count_3
*449 FE_OFN4_pwm_count_3
*450 FE_OFN3_pwm_count_3
*451 FE_OFN2_pwm_count_3
*452 FE_OFN1_pwm_count_3
*453 FE_OFN0_pwm_count_3
*454 pwm_count[3]
*455 scan_count[2]
*456 scan_count[1]
*457 scan_count[0]
*458 n_0
*459 n_1
*460 n_2
*461 n_3
*462 n_4
*463 n_5
*464 n_6
*465 n_7
*466 n_9
*467 n_10
*468 n_11
*469 n_12
*470 n_13
*471 n_14
*472 n_16
*473 n_18
*474 n_19
*475 n_21
*476 n_23
*477 n_24
*478 n_25
*479 n_26
*480 n_29
*481 n_30
*482 n_32
*483 n_33
*484 n_34
*485 n_35
*486 n_36
*487 n_37
*488 n_38
*489 n_39
*490 n_40
*491 n_41
*492 n_42
*493 n_43
*494 n_44
*495 n_45
*496 n_46
*497 n_47
*498 n_48
*499 n_49
*500 n_50
*501 n_51
*502 n_52
*503 n_53
*504 n_54
*505 n_55
*506 n_56
*507 n_57
*508 n_58
*509 n_59
*510 n_60
*511 n_61
*512 n_62
*513 n_63
*514 n_64
*515 n_65
*516 n_66
*517 n_67
*518 n_68
*519 n_69
*520 clk_int
*521 rst_int
*522 display_data_int[0]
*523 display_data_int[1]
*524 display_data_int[2]
*525 display_data_int[3]
*526 display_data_int[4]
*527 display_data_int[5]
*528 display_data_int[6]
*529 display_data_int[7]
*530 display_data_int[8]
*531 display_data_int[9]
*532 display_data_int[10]
*533 display_data_int[11]
*534 display_data_int[12]
*535 display_data_int[13]
*536 display_data_int[14]
*537 display_data_int[15]
*538 display_data_int[16]
*539 display_data_int[17]
*540 display_data_int[18]
*541 display_data_int[19]
*542 display_data_int[20]
*543 display_data_int[21]
*544 display_data_int[22]
*545 display_data_int[23]
*546 display_data_int[24]
*547 display_data_int[25]
*548 display_data_int[26]
*549 display_data_int[27]
*550 display_data_int[28]
*551 display_data_int[29]
*552 display_data_int[30]
*553 display_data_int[31]
*554 display_data_int[32]
*555 display_data_int[33]
*556 display_data_int[34]
*557 display_data_int[35]
*558 display_data_int[36]
*559 display_data_int[37]
*560 display_data_int[38]
*561 display_data_int[39]
*562 display_data_int[40]
*563 display_data_int[41]
*564 display_data_int[42]
*565 display_data_int[43]
*566 display_data_int[44]
*567 display_data_int[45]
*568 display_data_int[46]
*569 display_data_int[47]
*570 display_data_int[48]
*571 display_data_int[49]
*572 display_data_int[50]
*573 display_data_int[51]
*574 display_data_int[52]
*575 display_data_int[53]
*576 display_data_int[54]
*577 display_data_int[55]
*578 display_data_int[56]
*579 display_data_int[57]
*580 display_data_int[58]
*581 display_data_int[59]
*582 display_data_int[60]
*583 display_data_int[61]
*584 display_data_int[62]
*585 display_data_int[63]
*586 brightness_int[0]
*587 brightness_int[1]
*588 brightness_int[2]
*589 brightness_int[3]
*590 FE_ECOC36_n_19
*591 FE_ECOC35_n_19
*592 FE_ECOC32_n_0
*593 FE_ECOC31_n_0
*594 FE_ECOC30_n_0
*595 FE_ECOC29_n_19
*596 FE_ECOC28_n_19
*597 FE_ECOC27_n_19
*598 FE_ECOC26_n_25
*599 FE_ECOC25_n_25
*600 FE_ECOC24_n_25
*601 FE_ECOC23_n_25
*602 FE_ECOC22_n_25
*603 FE_ECOC21_n_25
*604 FE_ECOC20_n_25
*605 FE_ECOC19_n_25
*606 FE_ECOC18_n_25
*607 FE_ECOC16_n_9
*608 FE_ECOC15_n_9
*609 FE_ECOC14_n_9
*610 FE_ECOC13_n_9
*611 FE_ECOC12_n_9
*612 FE_ECOC11_n_9
*613 FE_ECOC10_n_9
*614 FE_ECOC9_n_9
*615 FE_ECOC8_n_9
*616 FE_ECOC7_n_9
*617 FE_ECOC6_n_9
*618 FE_ECOC5_n_9
*619 FE_ECOC4_n_9
*620 FE_ECOC3_n_0
*621 FE_ECOC2_n_0
*622 FE_ECOC1_n_0
*623 FE_ECOC0_n_19
*624 FE_OFC333_n_58
*625 FE_OFC332_n_49
*626 FE_OFC331_n_42
*627 FE_OFC330_n_44
*628 FE_OFC329_n_34
*629 FE_OFC328_n_45
*630 FE_OFC327_n_43
*631 FE_OFC326_n_52
*632 FE_OFC325_n_61
*633 FE_OFC324_n_55
*634 FE_OFC323_n_62
*635 FE_OFC322_n_33
*636 FE_OFC321_n_30
*637 FE_OFC320_n_11
*638 FE_OFC319_n_29
*639 FE_OFC318_n_37
*640 FE_OFC317_n_36
*641 FE_OFC316_n_35
*642 FE_OFC315_n_54
*643 FE_OFC314_n_56
*644 FE_OFC313_n_68
*645 FE_OFC312_n_51
*646 FE_OFC311_n_7
*647 FE_OFC310_n_7
*648 FE_OFC309_n_7
*649 FE_OFC308_n_7
*650 FE_OFC307_n_61
*651 FE_OFC306_n_61
*652 FE_OFC305_n_61
*653 FE_OFC304_n_61
*654 FE_OFC303_n_62
*655 FE_OFC302_n_62
*656 FE_OFC301_n_62
*657 FE_OFC300_n_62
*658 FE_OFC299_n_58
*659 FE_OFC298_n_58
*660 FE_OFC297_n_58
*661 FE_OFC296_n_58
*662 FE_OFC295_n_51
*663 FE_OFC294_n_51
*664 FE_OFC293_n_51
*665 FE_OFC292_n_51
*666 FE_OFC291_n_60
*667 FE_OFC290_n_60
*668 FE_OFC289_n_60
*669 FE_OFC288_n_60
*670 FE_OFC287_n_60
*671 FE_OFC286_n_60
*672 FE_OFC285_n_64
*673 FE_OFC284_n_64
*674 FE_OFC283_n_64
*675 FE_OFC282_n_64
*676 FE_OFC281_n_64
*677 FE_OFC280_n_64
*678 FE_OFC279_n_69
*679 FE_OFC278_n_69
*680 FE_OFC277_n_69
*681 FE_OFC276_n_69
*682 FE_OFC275_n_69
*683 FE_OFC274_n_69
*684 FE_OFC273_n_52
*685 FE_OFC272_n_52
*686 FE_OFC271_n_52
*687 FE_OFC270_n_52
*688 FE_OFC269_n_52
*689 FE_OFC268_n_52
*690 FE_OFC267_n_49
*691 FE_OFC266_n_49
*692 FE_OFC265_n_46
*693 FE_OFC264_n_46
*694 FE_OFC263_n_42
*695 FE_OFC262_n_42
*696 FE_OFC261_n_44
*697 FE_OFC260_n_44
*698 FE_OFC259_n_53
*699 FE_OFC258_n_53
*700 FE_OFC257_n_53
*701 FE_OFC256_n_53
*702 FE_OFC255_n_36
*703 FE_OFC254_n_36
*704 FE_OFC253_n_36
*705 FE_OFC252_n_36
*706 FE_OFC251_n_37
*707 FE_OFC250_n_37
*708 FE_OFC249_n_37
*709 FE_OFC248_n_37
*710 FE_OFC247_n_39
*711 FE_OFC246_n_39
*712 FE_OFC245_n_39
*713 FE_OFC244_n_39
*714 FE_OFC243_n_34
*715 FE_OFC242_n_34
*716 FE_OFC241_n_34
*717 FE_OFC240_n_34
*718 FE_OFC239_n_35
*719 FE_OFC238_n_35
*720 FE_OFC237_n_35
*721 FE_OFC236_n_35
*722 FE_OFC235_n_32
*723 FE_OFC234_n_32
*724 FE_OFC233_n_32
*725 FE_OFC232_n_32
*726 FE_OFC231_n_54
*727 FE_OFC230_n_54
*728 FE_OFC229_n_54
*729 FE_OFC228_n_54
*730 FE_OFC227_n_56
*731 FE_OFC226_n_56
*732 FE_OFC225_n_56
*733 FE_OFC224_n_56
*734 FE_OFC223_n_68
*735 FE_OFC222_n_68
*736 FE_OFC221_n_68
*737 FE_OFC220_n_68
*738 FE_OFC219_n_43
*739 FE_OFC218_n_43
*740 FE_OFC217_n_43
*741 FE_OFC216_n_43
*742 FE_OFC215_n_55
*743 FE_OFC214_n_55
*744 FE_OFC213_n_55
*745 FE_OFC212_n_55
*746 FE_OFC211_n_66
*747 FE_OFC210_n_66
*748 FE_OFC209_n_66
*749 FE_OFC208_n_66
*750 FE_OFC207_n_66
*751 FE_OFC206_n_66
*752 FE_OFC205_n_45
*753 FE_OFC204_n_45
*754 FE_OFC203_n_45
*755 FE_OFC202_n_45
*756 FE_OFC201_n_45
*757 FE_OFC200_n_45
*758 FE_OFC199_n_41
*759 FE_OFC198_n_41
*760 FE_OFC197_n_41
*761 FE_OFC196_n_41
*762 FE_OFC195_n_41
*763 FE_OFC194_n_41
*764 FE_OFC193_n_50
*765 FE_OFC192_n_50
*766 FE_OFC191_n_50
*767 FE_OFC190_n_50
*768 FE_OFC189_n_50
*769 FE_OFC188_n_50
*770 FE_OFC187_n_63
*771 FE_OFC186_n_63
*772 FE_OFC185_n_63
*773 FE_OFC184_n_63
*774 FE_OFC183_n_63
*775 FE_OFC182_n_30
*776 FE_OFC181_n_30
*777 FE_OFC180_n_33
*778 FE_OFC179_n_33
*779 FE_OFC178_n_24
*780 FE_OFC177_n_24
*781 FE_OFC176_n_24
*782 FE_OFC175_n_24
*783 FE_OFC174_n_24
*784 FE_OFC173_n_24
*785 FE_OFC172_n_29
*786 FE_OFC171_n_29
*787 FE_OFC170_n_29
*788 FE_OFC169_n_29
*789 FE_OFC168_n_40
*790 FE_OFC167_n_40
*791 FE_OFC166_n_40
*792 FE_OFC165_n_40
*793 FE_OFC164_n_40
*794 FE_OFC163_n_40
*795 FE_OFC162_n_57
*796 FE_OFC161_n_57
*797 FE_OFC160_n_57
*798 FE_OFC159_n_57
*799 FE_OFC158_n_57
*800 FE_OFC157_n_57
*801 FE_OFC156_n_57
*802 FE_OFC155_n_57
*803 FE_OFC154_n_57
*804 FE_OFC153_n_57
*805 FE_OFC152_n_57
*806 FE_OFC151_n_48
*807 FE_OFC150_n_48
*808 FE_OFC149_n_48
*809 FE_OFC148_n_48
*810 FE_OFC147_n_48
*811 FE_OFC146_n_48
*812 FE_OFC145_n_48
*813 FE_OFC144_n_48
*814 FE_OFC143_n_48
*815 FE_OFC142_n_48
*816 FE_OFC141_n_48
*817 FE_OFC140_n_47
*818 FE_OFC139_n_47
*819 FE_OFC138_n_47
*820 FE_OFC137_n_47
*821 FE_OFC136_n_47
*822 FE_OFC135_n_47
*823 FE_OFC134_n_47
*824 FE_OFC133_n_47
*825 FE_OFC132_n_47
*826 FE_OFC131_n_47
*827 FE_OFC130_n_47
*828 FE_OFC129_n_47
*829 FE_OFC128_n_47
*830 FE_OFC127_n_67
*831 FE_OFC126_n_67
*832 FE_OFC125_n_67
*833 FE_OFC124_n_67
*834 FE_OFC123_n_67
*835 FE_OFC122_n_67
*836 FE_OFC121_n_67
*837 FE_OFC120_n_67
*838 FE_OFC119_n_13
*839 FE_OFC118_n_13
*840 FE_OFC117_n_13
*841 FE_OFC116_n_13
*842 FE_OFC115_n_23
*843 FE_OFC114_n_23
*844 FE_OFC113_n_23
*845 FE_OFC112_n_23
*846 FE_OFC111_n_23
*847 FE_OFC110_n_23
*848 FE_OFC109_n_26
*849 FE_OFC108_n_26
*850 FE_OFC107_n_26
*851 FE_OFC106_n_26
*852 FE_OFC105_n_65
*853 FE_OFC104_n_65
*854 FE_OFC103_n_65
*855 FE_OFC102_n_65
*856 FE_OFC101_n_65
*857 FE_OFC100_n_65
*858 FE_OFC99_n_65
*859 FE_OFC98_n_65
*860 FE_OFC97_n_65
*861 FE_OFC96_n_65
*862 FE_OFC95_n_65
*863 FE_OFC94_n_38
*864 FE_OFC93_n_38
*865 FE_OFC92_n_38
*866 FE_OFC91_n_38
*867 FE_OFC90_n_38
*868 FE_OFC89_n_38
*869 FE_OFC88_n_38
*870 FE_OFC87_n_38
*871 FE_OFC86_n_38
*872 FE_OFC85_n_38
*873 FE_OFC84_n_38
*874 FE_OFC83_n_38
*875 FE_OFC82_n_38
*876 FE_OFC81_n_16
*877 FE_OFC80_n_16
*878 FE_OFC79_n_16
*879 FE_OFC78_n_16
*880 FE_OFC77_n_12
*881 FE_OFC76_n_12
*882 FE_OFC75_n_12
*883 FE_OFC74_n_11
*884 FE_OFC73_n_11
*885 FE_OFC72_n_11
*886 FE_OFC71_n_11
*887 FE_OFC70_n_11
*888 FE_OFC69_n_11
*889 FE_OFC68_n_21
*890 FE_OFC67_n_21
*891 FE_OFC66_n_21
*892 FE_OFC65_n_21
*893 FE_OFC64_n_21
*894 FE_OFC63_n_21
*895 FE_OFC62_n_18
*896 FE_OFC61_n_18
*897 FE_OFC60_n_18
*898 FE_OFC59_n_18
*899 FE_OFC58_n_18
*900 FE_OFC57_n_59
*901 FE_OFC56_n_59
*902 FE_OFC55_n_59
*903 FE_OFC54_n_59
*904 FE_OFC53_n_59
*905 FE_OFC52_n_59
*906 FE_OFC51_n_59
*907 FE_OFC50_n_59
*908 FE_OFC49_n_59
*909 FE_OFC48_n_59
*910 FE_OFC47_n_2
*911 FE_OFC46_n_6
*912 FE_OFC45_n_6
*913 FE_OFC44_n_3
*914 FE_OFC43_n_3
*915 FE_OFC42_n_1
*916 FE_OFC41_n_1
*917 FE_OFC40_n_1
*918 FE_OFC39_n_1
*919 FE_OFC38_n_1
*920 FE_OFC37_n_4
*921 FE_OFC36_n_4
*922 FE_OFC35_n_4
*923 FE_OFC34_n_4
*924 FE_OFC33_n_4
*925 FE_OFC32_n_4
*926 FE_OFC31_n_4
*927 FE_OFC30_n_14
*928 FE_OFC29_n_14
*929 FE_OFC28_n_14
*930 FE_OFC27_n_14
*931 FE_OFC26_n_14
*932 FE_OFC25_n_14
*933 FE_OFC24_n_14
*934 FE_OFC23_scan_count_1
*935 FE_OFC22_scan_count_1
*936 FE_OFC21_scan_count_1
*937 FE_OFC19_scan_count_0
*938 FE_OFC18_scan_count_0
*939 FE_OFC17_scan_count_2
*940 FE_OFC16_scan_count_2
*941 FE_OFC15_scan_count_2
*942 FE_OFC14_scan_count_2
*943 FE_OFC13_scan_count_2
*944 FE_OFC12_scan_count_2
*945 FE_OFC11_pwm_count_3
*946 FE_OFC10_pwm_count_3
*947 FE_OFC9_pwm_count_3
*948 FE_OFC8_pwm_count_3
*949 FE_OFC7_pwm_count_3
*950 FE_OFC6_pwm_count_3
*951 FE_OFC5_pwm_count_3
*952 FE_OFC4_pwm_count_3
*953 FE_OFC3_pwm_count_3
*954 FE_OFC2_pwm_count_3
*955 FE_OFC1_pwm_count_3
*956 FE_OFC0_pwm_count_3
*957 g2362__2398
*958 g2360__5107
*959 g2361__6260
*960 g2363__4319
*961 g2364__8428
*962 g2365__5526
*963 g2359__6783
*964 g2366__3680
*965 g2387__1617
*966 g2368__2802
*967 g2375__1705
*968 g2369__5122
*969 g2385__8246
*970 g2377__7098
*971 g2367__6131
*972 g2382__1881
*973 g2378__5115
*974 g2370__7482
*975 g2379__4733
*976 g2381__6161
*977 g2374__9315
*978 g2388__9945
*979 g2384__2883
*980 g2371__2346
*981 g2383__1666
*982 g2376__7410
*983 g2373__6417
*984 g2372__5477
*985 g2386__2398
*986 g2380__5107
*987 g2392__6260
*988 g2391__4319
*989 g2390__8428
*990 g2393__5526
*991 g2397__6783
*992 g2396__3680
*993 g2395__1617
*994 g2398__2802
*995 g2401__1705
*996 g2402__5122
*997 g2389__8246
*998 g2394__7098
*999 pwm_count_reg\[3\]
*1000 g2403__6131
*1001 pwm_count_reg\[2\]
*1002 g2406__1881
*1003 g2407__5115
*1004 g2408__7482
*1005 g2409__4733
*1006 g2410__6161
*1007 g2404__9315
*1008 g2411__9945
*1009 g2405__2883
*1010 g2413__2346
*1011 g2414__1666
*1012 scan_count_reg\[1\]
*1013 g2415__7410
*1014 g2416__6417
*1015 g2419__5477
*1016 g2417__2398
*1017 g2420__5107
*1018 g2418__6260
*1019 g2421
*1020 g2423__4319
*1021 g2422__8428
*1022 g2427__5526
*1023 g2425__6783
*1024 g2424__3680
*1025 g2428__1617
*1026 g2429__2802
*1027 g2430__1705
*1028 g2431__5122
*1029 g2432__8246
*1030 scan_count_reg\[0\]
*1031 g2433__7098
*1032 g2434__6131
*1033 g2439__1881
*1034 g2438__5115
*1035 g2437__7482
*1036 g2435__4733
*1037 g2436__6161
*1038 g2440
*1039 c
*1040 r
*1041 dd0
*1042 dd1
*1043 dd2
*1044 dd3
*1045 dd4
*1046 dd5
*1047 dd6
*1048 dd7
*1049 dd8
*1050 dd9
*1051 dd10
*1052 dd11
*1053 dd12
*1054 dd13
*1055 dd14
*1056 dd15
*1057 dd16
*1058 dd17
*1059 dd18
*1060 dd19
*1061 dd20
*1062 dd21
*1063 dd22
*1064 dd23
*1065 dd24
*1066 dd25
*1067 dd26
*1068 dd27
*1069 dd28
*1070 dd29
*1071 dd30
*1072 dd31
*1073 dd32
*1074 dd33
*1075 dd34
*1076 dd35
*1077 dd36
*1078 dd37
*1079 dd38
*1080 dd39
*1081 dd40
*1082 dd41
*1083 dd42
*1084 dd43
*1085 dd44
*1086 dd45
*1087 dd46
*1088 dd47
*1089 dd48
*1090 dd49
*1091 dd50
*1092 dd51
*1093 dd52
*1094 dd53
*1095 dd54
*1096 dd55
*1097 dd56
*1098 dd57
*1099 dd58
*1100 dd59
*1101 dd60
*1102 dd61
*1103 dd62
*1104 dd63
*1105 b0
*1106 b1
*1107 b2
*1108 b3
*1109 row0
*1110 row1
*1111 row2
*1112 row3
*1113 row4
*1114 row5
*1115 row6
*1116 row7
*1117 col0
*1118 col1
*1119 col2
*1120 col3
*1121 col4
*1122 col5
*1123 col6
*1124 col7


*PORTS

*2 I *C 272 1949.29
*3 I *C 334 1949.29
*4 I *C 1140 80.71
*5 I *C 1078 80.71
*6 I *C 1016 80.71
*7 I *C 954 80.71
*8 I *C 892 80.71
*9 I *C 830 80.71
*10 I *C 768 80.71
*11 I *C 706 80.71
*12 I *C 644 80.71
*13 I *C 582 80.71
*14 I *C 520 80.71
*15 I *C 458 80.71
*16 I *C 396 80.71
*17 I *C 334 80.71
*18 I *C 272 80.71
*19 I *C 1949.29 1574
*20 I *C 1949.29 1512
*21 I *C 1949.29 1450
*22 I *C 1949.29 1388
*23 I *C 1949.29 1326
*24 I *C 1949.29 1264
*25 I *C 1949.29 1202
*26 I *C 1949.29 1140
*27 I *C 1949.29 1078
*28 I *C 1949.29 1016
*29 I *C 1949.29 954
*30 I *C 1949.29 892
*31 I *C 1949.29 830
*32 I *C 1636 1949.29
*33 I *C 1574 1949.29
*34 I *C 1512 1949.29
*35 I *C 1450 1949.29
*36 I *C 1388 1949.29
*37 I *C 1326 1949.29
*38 I *C 1264 1949.29
*39 I *C 1202 1949.29
*40 I *C 1140 1949.29
*41 I *C 1078 1949.29
*42 I *C 1016 1949.29
*43 I *C 954 1949.29
*44 I *C 892 1949.29
*45 I *C 830 1949.29
*46 I *C 768 1949.29
*47 I *C 706 1949.29
*48 I *C 644 1949.29
*49 I *C 582 1949.29
*50 I *C 520 1949.29
*51 I *C 458 1949.29
*52 I *C 396 1949.29
*53 I *C 80.71 1636
*54 I *C 80.71 1574
*55 I *C 80.71 1512
*56 I *C 80.71 1450
*57 I *C 80.71 1388
*58 I *C 80.71 1326
*59 I *C 80.71 1264
*60 I *C 80.71 1202
*61 I *C 80.71 1140
*62 I *C 80.71 1078
*63 I *C 80.71 1016
*64 I *C 80.71 954
*65 I *C 80.71 892
*66 I *C 80.71 830
*67 I *C 80.71 768
*68 I *C 1388 80.71
*69 I *C 1326 80.71
*70 I *C 1264 80.71
*71 I *C 1202 80.71
*72 O *C 80.0075 706
*73 O *C 80.0075 644
*74 O *C 80.0075 582
*75 O *C 80.0075 520
*76 O *C 80.0075 458
*77 O *C 80.0075 396
*78 O *C 80.0075 334
*79 O *C 80.0075 272
*80 O *C 1949.99 706
*81 O *C 1949.99 644
*82 O *C 1949.99 582
*83 O *C 1949.99 520
*84 O *C 1949.99 458
*85 O *C 1949.99 396
*86 O *C 1949.99 334
*87 O *C 1949.99 272


*D_NET *1 9e-07

*CONN
*I *590:Y O *C 270.735 1772.9 *L 0 *D BUFX2
*I *595:A I *C 271.1 1769.9449 *L 0.00021 *D BUFX2

*CAP
1 *590:Y 4.5e-07
2 *595:A 4.5e-07

*RES
1 *590:Y *595:A 0.035522
*END

*D_NET *2 0.0283191

*CONN
*P *2 I *C 272 1949.29 *L 0
*I *1039:PAD B *C 272 1949.29 *L 0 *D PADDI
*I *1030:CK I *C 276.275 1775.33 *L 0.00021 *D DFFHQX1
*I *1012:CK I *C 260.075 1779.95 *L 0.00021 *D DFFHQX1
*I *1001:CK I *C 268.275 1779.95 *L 0.00021 *D DFFHQX1
*I *999:CK I *C 273.485 1776.455 *L 0.00021 *D DFFQXL

*CAP
1 *1039:PAD 0.00260974
2 *1030:CK 2.2707e-05
3 *1012:CK 2.2707e-05
4 *1001:CK 2.2707e-05
5 *999:CK 2.2707e-05
6 *2:6 0.00019403
7 *2:7 0.00019403
8 *2:8 0.000264074
9 *2:9 0.000264074
10 *2:15 1.79013e-05
11 *2:16 0.000410768
12 *2:17 1.79013e-05
13 *2:18 0.000609724
14 *2:19 0.000209769
15 *2:20 7.14849e-05
16 *2:21 0.000206285
17 *2:22 0.00146598
18 *2:23 0.00132722
19 *2:24 0.000862384
20 *2:25 0.000862384
21 *2:26 1.79013e-05
22 *2:27 1.62193e-05
23 *2:28 2.71522e-05
24 *2:29 3.38802e-05
25 *2:30 3.38802e-05
26 *2:31 0.000127231
27 *2:32 0.00787355
28 *2:33 0.00786778
29 *2:34 0.00264302

*RES
1 *1039:PAD *2:34 3.86274
2 *2:33 *2:34 0.07951
3 *2:32 *2:33 28.5137
4 *2:31 *2:32 0.597048
5 *2:30 *2:31 0.597048
6 *2:29 *2:30 0.31804
7 *2:14 *2:28 0.263106
8 *2:28 *2:29 2.16556
9 *2:13 *2:27 1.01195
10 *2:27 *2:28 2.16556
11 *2:12 *2:26 1.01195
12 *2:26 *2:27 8.76056
13 *2:25 *2:26 8.76056
14 *2:9 *1030:CK 8.76056
15 *2:24 *2:25 61.3644
16 *2:7 *999:CK 8.76056
17 *2:9 *2:8 17.6743
18 *2:23 *2:24 8.76056
19 *2:7 *2:6 13.2247
20 *2:22 *2:8 8.76056
21 *2:22 *2:23 94.7412109
22 *2:21 *2:6 8.76056
23 *2:21 *2:22 9.9373
24 *2:20 *2:21 4.36293
25 *2:17 *1001:CK 8.76056
26 *2:11 *2:17 1.05242
27 *2:19 *2:20 1.05387
28 *2:18 *2:17 8.76056
29 *2:18 *2:19 14.5445
30 *2:16 *2:18 29.8148
31 *2:15 *1012:CK 8.76056
32 *2:15 *2:16 8.76056
33 *2:10 *2:15 1.05242
34 *1039:PAD *2 0.00722818
*END

*D_NET *3 0.034913

*CONN
*P *3 I *C 334 1949.29 *L 0
*I *1040:PAD B *C 334 1949.29 *L 0 *D PADDI
*I *1031:A I *C 280.5 1774.885 *L 0.000392 *D NOR2X1
*I *1018:B0 I *C 262.9 1769.9449 *L 0.000212 *D AOI21XL
*I *1007:A I *C 269.9 1771.465 *L 0.000392 *D NOR2X1
*I *1003:A I *C 274.5 1773.5551 *L 0.000392 *D NOR2X1

*CAP
1 *1040:PAD 0.00258302
2 *1031:A 9.85983e-06
3 *1018:B0 2.2627e-05
4 *1007:A 9.85983e-06
5 *1003:A 9.85983e-06
6 *3:6 7.40751e-05
7 *3:7 7.40751e-05
8 *3:8 3.90601e-05
9 *3:9 3.90601e-05
10 *3:10 4.65182e-05
11 *3:11 4.65182e-05
12 *3:12 0.000354827
13 *3:13 0.000350782
14 *3:17 0.000405517
15 *3:18 0.000415503
16 *3:19 0.000223237
17 *3:20 2.67985e-05
18 *3:21 1.69387e-05
19 *3:22 0.000467204
20 *3:23 2.27534e-05
21 *3:24 1.61802e-05
22 *3:25 1.61802e-05
23 *3:26 9.70814e-05
24 *3:27 0.00025092
25 *3:28 2.37647e-05
26 *3:29 9.70814e-05
27 *3:30 4.60125e-05
28 *3:31 4.50013e-05
29 *3:32 0.00366495
30 *3:33 0.00366103
31 *3:34 0.000305781
32 *3:35 0.000305781
33 *3:36 1.79499e-05
34 *3:37 1.63066e-05
35 *3:38 2.71777e-05
36 *3:39 2.35119e-05
37 *3:40 2.35119e-05
38 *3:41 0.000267353
39 *3:42 0.000330936
40 *3:43 0.000533442
41 *3:44 0.000544692
42 *3:45 9.64493e-05
43 *3:46 7.92578e-05
44 *3:47 0.00261627
45 *3:48 0.00828415
46 *3:49 0.00828415

*RES
1 *3:11 *1018:B0 8.7592
2 *3:11 *3:10 6.59148
3 *3:21 *1007:A 0.602145
4 *3:25 *1003:A 0.602145
5 *3:17 *3:10 8.7592
6 *3:20 *3:21 0.646302
7 *3:24 *3:25 0.578059
8 *3:17 *3:18 21.6331
9 *3:18 *3:20 1.20028
10 *3:23 *3:24 0.602145
11 *3:7 *3:18 8.7592
12 *1040:PAD *3:47 3.82161
13 *3:8 *3:23 8.7592
14 *3:7 *3:6 4.05043
15 *3:46 *3:47 0.080286
16 *3:9 *3:8 2.8622
17 *3:19 *3:6 8.7592
18 *3:45 *3:46 0.196701
19 *3:31 *1031:A 0.606159
20 *3:22 *3:9 8.7592
21 *3:19 *3:22 14.1504
22 *3:45 *3:49 0.116415
23 *3:30 *3:31 3.24355
24 *3:22 *3:27 16.9484
25 *3:48 *3:49 29.9667
26 *3:28 *3:30 0.598131
27 *3:26 *3:27 8.7592
28 *3:44 *3:48 0.116415
29 *3:29 *3:28 8.7592
30 *3:26 *3:29 6.68381
31 *3:43 *3:44 1.56156
32 *3:13 *3:29 8.7592
33 *3:42 *3:43 0.598131
34 *3:13 *3:12 24.6317
35 *3:41 *3:42 1.42106
36 *3:12 *3:32 1.01963
37 *3:40 *3:41 0.598131
38 *3:32 *3:33 263.081146
39 *3:39 *3:40 0.160572
40 *3:34 *3:33 8.7592
41 *3:16 *3:38 0.264944
42 *3:38 *3:39 2.16371
43 *3:34 *3:35 21.4926
44 *3:15 *3:37 1.0116
45 *3:37 *3:38 2.16371
46 *3:36 *3:35 8.7592
47 *3:36 *3:37 8.7592
48 *3:14 *3:36 1.0116
49 *1040:PAD *3 0.0080286
*END

*D_NET *4 0.0705559

*CONN
*P *4 I *C 1140 80.71 *L 0
*I *1104:PAD B *C 1140 80.71 *L 0 *D PADDI
*I *976:B0 I *C 1136.5 701.195 *L 0.000211 *D AOI22XL

*CAP
1 *1104:PAD 0.00262769
2 *976:B0 2.25823e-05
3 *4:3 0.00689365
4 *4:4 0.01720853
5 *4:5 0.0103375
6 *4:6 0.000296196
7 *4:7 0.000296196
8 *4:11 0.00312713
9 *4:12 0.00169814
10 *4:13 0.00313186
11 *4:14 0.00926401
12 *4:15 0.00266078
13 *4:16 3.38735e-05
14 *4:17 0.000127091
15 *4:18 0.00926953
16 *4:19 0.000120264
17 *4:20 1.78558e-05
18 *4:21 1.62803e-05
19 *4:22 2.70463e-05
20 *4:23 3.38735e-05
21 *4:24 0.00169814
22 *4:25 0.000120264
23 *4:3 *333:7 2.637e-05
24 *4:4 *333:6 2.637e-05
25 *4:4 *333:5 1.774e-05
26 *4:5 *333:4 1.774e-05
27 *4:3 *333:3 5.92e-06
28 *4:4 *333:2 5.92e-06
29 *4:4 *333:3 0.00044889
30 *4:5 *333:2 0.000448889998
31 *4:3 *331:6 0.00026462
32 *4:4 *331:5 0.000264619999

*RES
1 *4:3 *976:B0 8.76079
2 *4:4 *4:3 527.658
3 *4:5 *4:4 789.124
4 *4:6 *4:5 1.07968
5 *1104:PAD *4:15 3.88926
6 *4:7 *4:6 22.2793
7 *4:14 *4:15 0.0801725
8 *4:7 *4:13 1.07968
9 *4:14 *4:18 33.2453
10 *4:11 *4:13 230.157
11 *4:17 *4:18 0.59663
12 *4:12 *4:11 8.76079
13 *4:16 *4:17 0.59663
14 *4:12 *4:24 122.027
15 *4:16 *4:23 0.307603
16 *4:25 *4:24 8.76079
17 *4:10 *4:22 0.254235
18 *4:22 *4:23 2.16491
19 *4:19 *4:25 8.03943
20 *4:9 *4:21 1.01763
21 *4:21 *4:22 2.16491
22 *4:20 *4:19 8.76079
23 *4:20 *4:21 8.76079
24 *4:8 *4:20 1.01763
25 *1104:PAD *4 0.00653203
*END

*D_NET *5 0.115879

*CONN
*P *5 I *C 1078 80.71 *L 0
*I *1103:PAD B *C 1078 80.71 *L 0 *D PADDI
*I *997:B0 I *C 1326.5 646.475 *L 0.000211 *D AOI22XL

*CAP
1 *1103:PAD 0.00262759
2 *997:B0 2.27002e-05
3 *5:3 0.00158789
4 *5:4 0.00158789
5 *5:5 0.0012941
6 *5:6 0.01229467
7 *5:7 0.0111066
8 *5:8 0.00920182
9 *5:9 0.00920182
10 *5:15 0.0104848
11 *5:16 0.0026608
12 *5:17 0.0104907
13 *5:18 0.000599584
14 *5:19 1.78224e-05
15 *5:20 1.63216e-05
16 *5:21 2.72027e-05
17 *5:22 1.78224e-05
18 *5:23 1.78224e-05
19 *5:24 0.000599584
20 *5:25 0.0109578
21 *5:26 0.0109578
22 *5:3 *6:27 0.00079181
23 *5:4 *6:21 0.00079181
24 *5:5 *6:25 0.00067225
25 *5:6 *6:5 0.00067225
26 *5:6 *6:25 0.00182971
27 *5:7 *6:5 0.00182971
28 *5:6 *6:5 0.00460759
29 *5:7 *6:12 0.00460759
30 *5:8 *6:23 0.00215143
31 *5:9 *6:20 0.00215143037

*RES
1 *1103:PAD *5:16 3.88916
2 *5:15 *5:16 0.0810754
3 *5:15 *5:17 30.45
4 *5:7 *5:17 0.59701
5 *5:6 *5:5 9.33842
6 *5:7 *5:6 81.7707
7 *5:25 *5:5 0.59701
8 *5:25 *5:26 161.010895
9 *5:3 *5:26 0.59701
10 *5:4 *5:3 11.38
11 *5:22 *997:B0 8.76106
12 *5:13 *5:22 1.02204
13 *5:9 *5:4 0.59701
14 *5:23 *5:22 8.76106
15 *5:14 *5:23 1.02204
16 *5:9 *5:8 154.105
17 *5:24 *5:23 8.76106
18 *5:12 *5:21 0.250597
19 *5:21 *5:8 2.16447
20 *5:18 *5:24 41.0389
21 *5:11 *5:20 1.02204
22 *5:20 *5:21 2.16447
23 *5:19 *5:18 8.76106
24 *5:19 *5:20 8.76106
25 *5:10 *5:19 1.02204
26 *1103:PAD *5 0.00737049
*END

*D_NET *6 0.115568

*CONN
*P *6 I *C 1016 80.71 *L 0
*I *1102:PAD B *C 1016 80.71 *L 0 *D PADDI
*I *993:B0 I *C 1327.1 583.205 *L 0.000211 *D AOI22XL

*CAP
1 *1102:PAD 0.00262741
2 *993:B0 2.27254e-05
3 *6:3 3.77092e-05
4 *6:4 3.77092e-05
5 *6:5 0.01636604
6 *6:9 0.0083607
7 *6:10 0.00266087
8 *6:11 0.00837793
9 *6:12 0.0123679
10 *6:13 7.69168e-05
11 *6:14 1.79805e-05
12 *6:15 1.82303e-05
13 *6:16 1.82303e-05
14 *6:17 1.79805e-05
15 *6:18 1.62324e-05
16 *6:19 2.59719e-05
17 *6:20 0.00632016
18 *6:21 0.00131208
19 *6:22 2.59719e-05
20 *6:23 0.00632016
21 *6:24 0.0125087
22 *6:25 0.00410406
23 *6:26 0.0125087
24 *6:27 0.00131208
25 *6:27 *5:3 0.00079181
26 *6:21 *5:4 0.00079181
27 *6:25 *5:5 0.00067225
28 *6:5 *5:6 0.00067225
29 *6:25 *5:6 0.00182971
30 *6:5 *5:7 0.00182971
31 *6:5 *5:6 0.00460759
32 *6:12 *5:7 0.00460759
33 *6:23 *5:8 0.00215143
34 *6:20 *5:9 0.00215143037

*RES
1 *1102:PAD *6:10 3.88903
2 *6:9 *6:10 0.0792165
3 *6:9 *6:11 30.3052
4 *6:11 *6:13 0.116349
5 *6:12 *6:13 0.596599
6 *6:5 *6:25 30.939
7 *6:12 *6:5 81.7712
8 *6:24 *6:25 0.596599
9 *6:24 *6:26 162.235306
10 *6:27 *6:26 0.596599
11 *6:21 *6:27 9.95404
12 *6:20 *6:21 0.596599
13 *6:20 *6:23 111.641
14 *6:22 *6:23 2.16607
15 *6:19 *6:22 0.158433
16 *6:8 *6:18 1.02239
17 *6:18 *6:19 2.16607
18 *6:7 *6:17 1.02239
19 *6:17 *6:18 8.76085
20 *6:3 *993:B0 8.76085
21 *6:16 *6:17 8.76085
22 *6:4 *6:3 3.08944
23 *6:15 *6:16 0.67334
24 *6:14 *6:4 8.76085
25 *6:14 *6:15 8.76085
26 *6:6 *6:14 1.02239
27 *1102:PAD *6 0.00742654
*END

*D_NET *7 0.0313289

*CONN
*P *7 I *C 954 80.71 *L 0
*I *1101:PAD B *C 954 80.71 *L 0 *D PADDI
*I *978:B0 I *C 950.3 248.045 *L 0.000211 *D AOI22XL

*CAP
1 *1101:PAD 0.00258297
2 *978:B0 2.26648e-05
3 *7:3 0.000451373
4 *7:4 0.000451373
5 *7:5 0.00663096
6 *7:6 0.00662519
7 *7:10 0.00261626
8 *7:11 0.000108568
9 *7:12 0.000816842
10 *7:13 3.95621e-05
11 *7:14 0.000816842
12 *7:15 3.48066e-05
13 *7:16 0.000383581
14 *7:17 4.02704e-05
15 *7:18 4.82638e-05
16 *7:19 1.79092e-05
17 *7:20 1.62903e-05
18 *7:21 2.71168e-05
19 *7:22 0.000383581
20 *7:23 4.82638e-05
21 *7:24 1.82128e-05
22 *7:25 1.82128e-05
23 *7:5 *8:21 0.00390043
24 *7:6 *8:19 0.00390043007
25 *7:17 *18:8 2.555e-05
26 *7:15 *18:9 2.555e-05
27 *7:13 *18:8 3.194e-05
28 *7:11 *18:9 3.194e-05
29 *7:14 *18:8 0.00060692
30 *7:12 *18:9 0.000606920015

*RES
1 *7:10 *1101:PAD 3.82311
2 *7:6 *7:10 0.0804008
3 *7:6 *7:5 30.3198
4 *7:11 *7:5 0.596391
5 *7:11 *7:13 0.184209
6 *7:12 *7:13 0.106862
7 *7:12 *7:14 6.1817
8 *7:24 *978:B0 8.76063
9 *7:14 *7:15 0.106862
10 *7:24 *7:25 1.65636
11 *7:15 *7:17 0.147062
12 *7:3 *7:25 8.76063
13 *7:16 *7:17 0.596391
14 *7:4 *7:3 33.3490334
15 *7:16 *7:22 5.80972
16 *7:23 *7:4 8.76063
17 *7:9 *7:21 0.274279
18 *7:21 *7:22 2.16472
19 *7:18 *7:23 2.77739
20 *7:8 *7:20 1.05488
21 *7:20 *7:21 2.16472
22 *7:19 *7:18 8.76063
23 *7:19 *7:20 8.76063
24 *7:7 *7:19 1.05488
25 *1101:PAD *7 0.00661526
*END

*D_NET *8 0.0336806

*CONN
*P *8 I *C 892 80.71 *L 0
*I *1100:PAD B *C 892 80.71 *L 0 *D PADDI
*I *968:B0 I *C 893.7 248.045 *L 0.000211 *D AOI22XL

*CAP
1 *1100:PAD 0.00258301
2 *968:B0 2.26869e-05
3 *8:3 0.000722807
4 *8:4 0.000722807
5 *8:5 0.00100445
6 *8:6 0.000940859
7 *8:10 2.59782e-05
8 *8:11 2.59782e-05
9 *8:12 4.50211e-05
10 *8:13 0.000307272
11 *8:14 1.78674e-05
12 *8:15 1.62217e-05
13 *8:16 2.71537e-05
14 *8:17 4.50211e-05
15 *8:18 0.000307272
16 *8:19 0.00769779
17 *8:20 0.00261628
18 *8:21 0.00770355
19 *8:21 *7:5 0.00390043
20 *8:19 *7:6 0.00390043007
21 *8:5 *18:6 0.00052383
22 *8:6 *18:7 0.000523829993

*RES
1 *1100:PAD *8:20 3.82294
2 *8:19 *8:20 0.0801505
3 *8:19 *8:21 30.4799
4 *8:10 *968:B0 8.7607
5 *8:5 *8:21 0.596676
6 *8:10 *8:11 1.3828
7 *8:6 *8:5 5.51419
8 *8:4 *8:11 8.7607
9 *8:12 *8:6 0.596676
10 *8:4 *8:3 53.058033
11 *8:12 *8:17 0.497095
12 *8:18 *8:3 8.7607
13 *8:9 *8:16 0.273645
14 *8:16 *8:17 2.16487
15 *8:13 *8:18 22.2187
16 *8:8 *8:15 1.05005
17 *8:15 *8:16 2.16487
18 *8:14 *8:13 8.7607
19 *8:14 *8:15 8.7607
20 *8:7 *8:14 1.05005
21 *1100:PAD *8 0.00647681
*END

*D_NET *9 0.0453334

*CONN
*P *9 I *C 830 80.71 *L 0
*I *1099:PAD B *C 830 80.71 *L 0 *D PADDI
*I *971:B0 I *C 826.3 248.045 *L 0.000211 *D AOI22XL

*CAP
1 *1099:PAD 0.00258298
2 *971:B0 2.26983e-05
3 *9:3 1.96862e-05
4 *9:4 1.96862e-05
5 *9:5 0.00128681
6 *9:6 0.00128283
7 *9:7 0.00703863
8 *9:8 0.00704993
9 *9:12 2.35589e-05
10 *9:13 0.000127261
11 *9:14 1.81802e-05
12 *9:15 1.78575e-05
13 *9:16 1.62438e-05
14 *9:17 2.71089e-05
15 *9:18 2.35589e-05
16 *9:19 1.81802e-05
17 *9:20 7.92828e-05
18 *9:21 0.00261633
19 *9:22 9.63872e-05
20 *9:23 5.92738e-05
21 *9:24 5.52936e-05
22 *9:7 *10:23 0.0113812
23 *9:8 *10:21 0.0113812
24 *9:7 *10:20 4.459e-05
25 *9:8 *10:19 4.45508327e-05

*RES
1 *9:21 *1099:PAD 3.82284
2 *9:20 *9:21 0.080067
3 *9:3 *971:B0 8.76079
4 *9:20 *9:22 0.196528
5 *9:4 *9:3 0.756998
6 *9:8 *9:22 0.116461
7 *9:24 *9:4 8.76079
8 *9:8 *9:7 31.3281
9 *9:23 *9:24 4.90156
10 *9:13 *9:7 0.596863
11 *9:23 *9:5 1.05834
12 *9:12 *9:13 0.596863
13 *9:6 *9:5 95.4049835
14 *9:12 *9:18 0.165957
15 *9:19 *9:6 8.76079
16 *9:11 *9:17 0.273684
17 *9:17 *9:18 2.16472
18 *9:14 *9:19 0.6944
19 *9:10 *9:16 1.04961
20 *9:16 *9:17 2.16472
21 *9:15 *9:14 8.76079
22 *9:15 *9:16 8.76079
23 *9:9 *9:15 1.04961
24 *1099:PAD *9 0.00582306
*END

*D_NET *10 0.0572149

*CONN
*P *10 I *C 768 80.71 *L 0
*I *1098:PAD B *C 768 80.71 *L 0 *D PADDI
*I *975:B0 I *C 766.1 336.965 *L 0.000211 *D AOI22XL

*CAP
1 *1098:PAD 0.00258295
2 *975:B0 2.27126e-05
3 *10:3 1.78456e-05
4 *10:4 1.78456e-05
5 *10:5 0.00163693
6 *10:6 0.00157325
7 *10:11 0.00476955
8 *10:12 0.000370398
9 *10:13 1.78456e-05
10 *10:14 1.62233e-05
11 *10:15 2.7174e-05
12 *10:16 0.00476955
13 *10:17 1.78456e-05
14 *10:18 0.000370398
15 *10:19 0.000185453
16 *10:20 0.000174096
17 *10:21 0.00662782
18 *10:22 0.00261631
19 *10:23 0.00664496
20 *10:23 *9:7 0.0113812
21 *10:21 *9:8 0.0113812
22 *10:20 *9:7 4.459e-05
23 *10:19 *9:8 4.45508327e-05
24 *10:5 *12:19 0.00095207
25 *10:6 *12:18 0.000952070003

*RES
1 *1098:PAD *10:22 3.82309
2 *10:21 *10:22 0.0802271
3 *10:21 *10:23 30.221
4 *10:19 *10:23 0.115527
5 *10:19 *10:20 0.431087
6 *10:5 *10:20 0.59689
7 *10:3 *975:B0 8.7608
8 *10:6 *10:5 11.7752
9 *10:4 *10:3 0.674977
10 *10:11 *10:6 0.59689
11 *10:17 *10:4 8.7608
12 *10:10 *10:17 1.02156
13 *10:11 *10:16 70.103508
14 *10:18 *10:17 8.7608
15 *10:9 *10:15 0.250309
16 *10:15 *10:16 2.16506
17 *10:12 *10:18 25.5582
18 *10:8 *10:14 1.02156
19 *10:14 *10:15 2.16506
20 *10:13 *10:12 8.7608
21 *10:13 *10:14 8.7608
22 *10:7 *10:13 1.02156
23 *1098:PAD *10 0.00641817
*END

*D_NET *11 0.064712

*CONN
*P *11 I *C 706 80.71 *L 0
*I *1097:PAD B *C 706 80.71 *L 0 *D PADDI
*I *998:B0 I *C 951.5 333.545 *L 0.000211 *D AOI22XL

*CAP
1 *1097:PAD 0.00262748
2 *998:B0 2.27276e-05
3 *11:7 0.00833121
4 *11:8 0.00266076
5 *11:9 0.00973497
6 *11:10 0.008337
7 *11:11 0.000365869
8 *11:12 0.00967139
9 *11:13 0.00425837
10 *11:14 1.78255e-05
11 *11:15 1.61915e-05
12 *11:16 2.71839e-05
13 *11:17 0.000365869
14 *11:18 0.00138326
15 *11:19 0.00425837
16 *11:20 1.78255e-05
17 *11:21 0.00138326
18 *11:12 *18:5 0.00480366
19 *11:9 *18:3 0.00480366
20 *11:12 *18:3 0.0002722
21 *11:9 *18:4 0.0002722
22 *11:12 *18:6 0.00054037
23 *11:9 *18:7 0.000540370262

*RES
1 *1097:PAD *11:8 3.89043
2 *11:7 *11:8 0.0792065
3 *11:7 *11:10 30.1963
4 *11:9 *11:10 0.596378
5 *11:20 *998:B0 8.7593
6 *11:6 *11:20 0.214323
7 *11:9 *11:12 68.6487
8 *11:21 *11:20 8.7593
9 *11:11 *11:12 0.596378
10 *11:18 *11:21 99.1199
11 *11:11 *11:17 5.46524
12 *11:19 *11:18 8.7593
13 *11:5 *11:16 0.0559104
14 *11:16 *11:17 2.16653
15 *11:13 *11:19 305.34552
16 *11:4 *11:15 1.04832
17 *11:15 *11:16 2.16653
18 *11:14 *11:13 8.7593
19 *11:14 *11:15 8.7593
20 *11:3 *11:14 0.223642
21 *1097:PAD *11 0.0046592
*END

*D_NET *12 0.117061

*CONN
*P *12 I *C 644 80.71 *L 0
*I *1096:PAD B *C 644 80.71 *L 0 *D PADDI
*I *969:B0 I *C 892.7 708.035 *L 0.000211 *D AOI22XL

*CAP
1 *1096:PAD 0.00267206
2 *969:B0 2.26501e-05
3 *12:3 0.01427284
4 *12:9 0.00830889
5 *12:10 0.00830889
6 *12:11 7.92754e-05
7 *12:12 0.00270538
8 *12:13 9.64808e-05
9 *12:14 0.000113033
10 *12:15 0.000108677
11 *12:16 0.000101708
12 *12:17 3.96377e-05
13 *12:18 0.0103761
14 *12:19 0.0108248
15 *12:20 0.0121803
16 *12:21 0.00178914
17 *12:22 0.00028966
18 *12:23 1.78587e-05
19 *12:24 1.63342e-05
20 *12:25 2.72237e-05
21 *12:26 0.00211887
22 *12:27 1.78587e-05
23 *12:28 1.78587e-05
24 *12:29 0.00028966
25 *12:30 0.000480444
26 *12:31 0.00100205
27 *12:32 0.000127189
28 *12:33 0.00100205
29 *12:34 0.0110016
30 *12:35 0.000132634
31 *12:36 0.0110016
32 *12:37 0.00178914
33 *12:19 *10:5 0.00095207
34 *12:18 *10:6 0.000952070003
35 *12:30 *18:5 0.00028518
36 *12:19 *18:3 0.00028518
37 *12:19 *18:5 0.00452015
38 *12:18 *18:3 0.00452015
39 *12:19 *18:3 0.00208876
40 *12:18 *18:4 0.00208876
41 *12:17 *18:3 1.806e-05
42 *12:15 *18:4 1.80601563e-05

*RES
1 *1096:PAD *12:12 3.95509
2 *12:11 *12:12 0.0811023
3 *12:11 *12:13 0.197349
4 *12:9 *12:13 0.116247
5 *12:9 *12:10 30.0376
6 *12:10 *12:14 0.116247
7 *12:14 *12:16 0.216273
8 *12:15 *12:16 0.597453
9 *12:15 *12:17 0.183832
10 *12:17 *12:18 0.108136
11 *12:19 *12:30 3.52524
12 *12:18 *12:19 81.77
13 *12:30 *12:31 0.108136
14 *12:31 *12:33 4.34167
15 *12:32 *12:33 0.108136
16 *12:32 *12:35 0.367664
17 *12:34 *12:35 0.597453
18 *12:34 *12:36 160.837
19 *12:37 *12:36 0.597453
20 *12:21 *12:37 10.4784
21 *12:27 *969:B0 8.76175
22 *12:7 *12:27 1.02189
23 *12:20 *12:21 0.597453
24 *12:28 *12:27 8.76175
25 *12:8 *12:28 1.02189
26 *12:3 *12:26 30.6621
27 *12:20 *12:3 177.170593
28 *12:29 *12:28 8.76175
29 *12:6 *12:25 0.251417
30 *12:25 *12:26 2.16543
31 *12:22 *12:29 19.5051
32 *12:5 *12:24 1.02189
33 *12:24 *12:25 2.16543
34 *12:23 *12:22 8.76175
35 *12:23 *12:24 8.76175
36 *12:4 *12:23 1.02189
37 *1096:PAD *12 0.00540682
*END

*D_NET *13 0.0699655

*CONN
*P *13 I *C 582 80.71 *L 0
*I *1095:PAD B *C 582 80.71 *L 0 *D PADDI
*I *977:B0 I *C 584.7 641.345 *L 0.000211 *D AOI22XL

*CAP
1 *1095:PAD 0.00258311
2 *977:B0 2.26085e-05
3 *13:3 3.21614e-05
4 *13:4 3.21614e-05
5 *13:5 0.02086832
6 *13:9 1.81505e-05
7 *13:10 1.62399e-05
8 *13:11 2.61113e-05
9 *13:12 0.0121803
10 *13:13 0.0018141
11 *13:14 1.78321e-05
12 *13:15 1.78321e-05
13 *13:16 1.81505e-05
14 *13:17 2.61113e-05
15 *13:18 0.00871416
16 *13:19 0.00187778
17 *13:20 7.67417e-05
18 *13:21 7.92891e-05
19 *13:22 0.00261622
20 *13:23 9.64843e-05
21 *13:24 0.00110686
22 *13:25 0.00110686
23 *13:26 0.00830912
24 *13:27 0.00830912

*RES
1 *1095:PAD *13:22 3.82229
2 *13:21 *13:22 0.0811528
3 *13:21 *13:23 0.197472
4 *13:23 *13:26 0.116319
5 *13:26 *13:27 30.0373
6 *13:24 *13:27 0.116319
7 *13:24 *13:25 3.46252
8 *13:20 *13:25 0.113614
9 *13:3 *977:B0 8.76179
10 *13:19 *13:20 0.597825
11 *13:4 *13:3 3.14873
12 *13:13 *13:19 10.0873
13 *13:14 *13:4 8.76179
14 *13:7 *13:14 1.02252
15 *13:12 *13:13 0.597825
16 *13:15 *13:14 8.76179
17 *13:8 *13:15 1.02252
18 *13:5 *13:18 126.78
19 *13:12 *13:5 177.280899
20 *13:16 *13:15 8.76179
21 *13:17 *13:18 2.16407
22 *13:9 *13:16 0.708734
23 *13:11 *13:17 0.1596
24 *13:10 *13:9 8.76179
25 *13:10 *13:11 2.16407
26 *13:6 *13:10 1.02252
27 *1095:PAD *13 0.00541018
*END

*D_NET *14 0.0939307

*CONN
*P *14 I *C 520 80.71 *L 0
*I *1094:PAD B *C 520 80.71 *L 0 *D PADDI
*I *972:B0 I *C 769.1 583.205 *L 0.000211 *D AOI22XL

*CAP
1 *1094:PAD 0.000217757
2 *972:B0 2.27533e-05
3 *14:3 8.20803e-05
4 *14:4 8.20803e-05
5 *14:8 0.00262758
6 *14:9 0.00833107
7 *14:10 0.0024432
8 *14:11 0.00834826
9 *14:12 0.0096066
10 *14:13 7.2979e-05
11 *14:14 0.01104545
12 *14:15 0.00954306
13 *14:16 0.01104545
14 *14:17 0.00220589
15 *14:18 0.00765926
16 *14:19 0.00220589
17 *14:20 1.87082e-05
18 *14:21 1.83712e-05
19 *14:22 1.61801e-05
20 *14:23 2.71354e-05
21 *14:24 0.00765926
22 *14:25 1.87082e-05
23 *14:26 1.78655e-05
24 *14:27 1.83712e-05
25 *14:15 *18:3 0.00529841
26 *14:12 *18:4 0.00529840992

*RES
1 *14:8 *14:10 3.56592
2 *1094:PAD *14:8 0.321476
3 *14:9 *14:10 0.0791327
4 *14:9 *14:11 30.199
5 *14:11 *14:13 0.116226
6 *14:12 *14:13 0.595968
7 *14:12 *14:15 67.6708
8 *14:3 *972:B0 8.76147
9 *14:14 *14:15 0.595968
10 *14:4 *14:3 6.80294
11 *14:14 *14:16 162.063705
12 *14:20 *14:4 8.76147
13 *14:17 *14:16 0.595968
14 *14:20 *14:25 0.707248
15 *14:17 *14:19 12.5747
16 *14:26 *14:25 8.76147
17 *14:7 *14:26 0.215142
18 *14:18 *14:19 0.595968
19 *14:27 *14:26 8.76147
20 *14:18 *14:24 111.34
21 *14:21 *14:27 0.707248
22 *14:6 *14:23 0.249762
23 *14:23 *14:24 2.16378
24 *14:22 *14:21 8.76147
25 *14:22 *14:23 2.16378
26 *14:5 *14:22 0.215142
27 *1094:PAD *14 0.00741869
*END

*D_NET *15 0.0935581

*CONN
*P *15 I *C 458 80.71 *L 0
*I *1093:PAD B *C 458 80.71 *L 0 *D PADDI
*I *978:A0 I *C 949.58 247.925 *L 0.000211 *D AOI22XL

*CAP
1 *1093:PAD 0.00262742
2 *978:A0 0.000425802
3 *15:3 0.0119828
4 *15:4 0.02298595
5 *15:5 0.0127193
6 *15:6 0.00177967
7 *15:11 0.00889274
8 *15:12 0.00266074
9 *15:13 0.0088987
10 *15:14 0.00043878
11 *15:15 3.43728e-05
12 *15:16 3.43728e-05
13 *15:17 1.78879e-05
14 *15:18 1.82386e-05
15 *15:19 1.82386e-05
16 *15:20 1.78879e-05
17 *15:21 1.61342e-05
18 *15:22 2.70072e-05
19 *15:23 5.47159e-05
20 *15:24 5.47159e-05
21 *15:3 *17:3 0.00234098
22 *15:4 *17:4 0.00234098
23 *15:4 *17:4 0.0065449
24 *15:5 *17:5 0.0065449
25 *15:5 *17:5 0.00104043
26 *15:6 *17:12 0.00104042949

*RES
1 *1093:PAD *15:12 3.88918
2 *15:11 *15:12 0.0798548
3 *15:11 *15:13 31.8833
4 *15:6 *15:13 0.596415
5 *15:4 *15:3 71.6198
6 *15:5 *15:4 81.771286
7 *15:6 *15:5 12.8579
8 *15:24 *15:3 0.596415
9 *15:23 *15:24 0.663793
10 *15:10 *15:22 0.274501
11 *15:22 *15:23 2.16481
12 *15:9 *15:21 1.05433
13 *15:21 *15:22 2.16481
14 *15:14 *978:A0 26.9709
15 *15:8 *15:20 1.05433
16 *15:20 *15:21 8.76032
17 *15:15 *15:14 8.76032
18 *15:19 *15:20 8.76032
19 *15:15 *15:16 2.08246
20 *15:18 *15:19 0.693738
21 *15:17 *15:16 8.76032
22 *15:17 *15:18 8.76032
23 *15:7 *15:17 1.05433
24 *1093:PAD *15 0.00623865
*END

*D_NET *16 0.123632

*CONN
*P *16 I *C 396 80.71 *L 0
*I *1092:PAD B *C 396 80.71 *L 0 *D PADDI
*I *968:A0 I *C 892.98 247.925 *L 0.000211 *D AOI22XL

*CAP
1 *1092:PAD 0.00258308
2 *968:A0 2.25455e-05
3 *16:3 0.0187096
4 *16:4 0.0191886
5 *16:10 0.00657715
6 *16:11 7.78846e-05
7 *16:12 0.00659443
8 *16:13 0.00261499
9 *16:14 7.64206e-05
10 *16:15 0.000501272
11 *16:16 0.00776972
12 *16:17 0.000489853
13 *16:18 1.7568e-05
14 *16:19 1.78608e-05
15 *16:20 1.78608e-05
16 *16:21 1.78608e-05
17 *16:22 1.69824e-05
18 *16:23 1.7568e-05
19 *16:24 1.69824e-05
20 *16:25 2.72303e-05
21 *16:26 2.63519e-05
22 *16:27 0.0081855
23 *16:27 *17:3 0.00234098
24 *16:4 *17:4 0.00234098
25 *16:4 *17:4 0.0065449
26 *16:3 *17:5 0.0065449
27 *16:17 *17:6 9.24e-06
28 *16:15 *17:7 9.24e-06
29 *16:12 *17:8 0.0113404
30 *16:10 *17:9 0.0113404
31 *16:17 *17:10 7.923e-05
32 *16:15 *17:11 7.923e-05
33 *16:3 *17:5 0.00471757
34 *16:16 *17:12 0.00471754933

*RES
1 *16:13 *1092:PAD 3.82305
2 *16:13 *16:14 0.0623865
3 *16:11 *16:14 0.0661297
4 *16:10 *16:11 0.0798548
5 *16:10 *16:12 29.8944
6 *16:12 *16:15 0.116039
7 *16:15 *16:17 1.61332
8 *16:16 *16:17 0.596415
9 *16:4 *16:27 53.9569
10 *16:3 *16:4 81.771286
11 *16:16 *16:3 58.3027
12 *16:9 *16:26 0.273253
13 *16:26 *16:27 0.596415
14 *16:8 *16:25 0.273253
15 *16:25 *16:26 2.16481
16 *16:24 *16:25 2.16481
17 *16:22 *16:24 0.691243
18 *16:23 *968:A0 8.76032
19 *16:7 *16:21 1.05059
20 *16:21 *16:22 8.76032
21 *16:18 *16:23 0.691243
22 *16:6 *16:20 1.05433
23 *16:20 *16:21 8.76032
24 *16:19 *16:18 8.76032
25 *16:19 *16:20 8.76032
26 *16:5 *16:19 1.05433
27 *1092:PAD *16 0.00623865
*END

*D_NET *17 0.125231

*CONN
*P *17 I *C 334 80.71 *L 0
*I *1091:PAD B *C 334 80.71 *L 0 *D PADDI
*I *971:A0 I *C 825.58 247.925 *L 0.000211 *D AOI22XL

*CAP
1 *1091:PAD 0.00258293
2 *971:A0 2.26774e-05
3 *17:3 0.00277512
4 *17:4 0.0105283
5 *17:5 0.01501176
6 *17:6 6.61997e-05
7 *17:7 7.74239e-05
8 *17:8 0.00664609
9 *17:9 0.00662891
10 *17:10 0.000406819
11 *17:11 0.000406819
12 *17:12 0.00732228
13 *17:18 0.00261638
14 *17:19 1.78671e-05
15 *17:20 1.78671e-05
16 *17:21 1.83252e-05
17 *17:22 1.83252e-05
18 *17:23 1.78671e-05
19 *17:24 1.62636e-05
20 *17:25 2.72587e-05
21 *17:26 4.42095e-05
22 *17:27 4.42095e-05
23 *17:3 *15:3 0.00234098
24 *17:4 *15:4 0.00234098
25 *17:4 *15:4 0.0065449
26 *17:5 *15:5 0.0065449
27 *17:5 *15:5 0.00104043
28 *17:12 *15:6 0.00104042949
29 *17:3 *16:27 0.00234098
30 *17:4 *16:4 0.00234098
31 *17:4 *16:4 0.0065449
32 *17:5 *16:3 0.0065449
33 *17:6 *16:17 9.24e-06
34 *17:7 *16:15 9.24e-06
35 *17:8 *16:12 0.0113404
36 *17:9 *16:10 0.0113404
37 *17:10 *16:17 7.923e-05
38 *17:11 *16:15 7.923e-05
39 *17:5 *16:3 0.00471757
40 *17:12 *16:16 0.00471754933

*RES
1 *1091:PAD *17:18 3.82305
2 *17:9 *17:18 0.0798548
3 *17:9 *17:8 30.3136
4 *17:11 *17:8 0.116039
5 *17:11 *17:10 1.25397
6 *17:10 *17:7 0.116039
7 *17:7 *17:6 0.23083
8 *17:12 *17:6 0.596415
9 *17:4 *17:3 29.1557
10 *17:5 *17:4 81.771286
11 *17:12 *17:5 58.6708
12 *17:27 *17:3 0.596415
13 *17:26 *17:27 0.497845
14 *17:17 *17:25 0.274501
15 *17:25 *17:26 2.16481
16 *17:16 *17:24 1.05433
17 *17:24 *17:25 2.16481
18 *17:15 *17:23 1.05433
19 *17:23 *17:24 8.76032
20 *17:22 *17:23 8.76032
21 *17:21 *17:22 0.693738
22 *17:14 *17:20 1.05433
23 *17:20 *17:21 8.76032
24 *17:19 *971:A0 8.76032
25 *17:19 *17:20 8.76032
26 *17:13 *17:19 1.05433
27 *1091:PAD *17 0.00623865
*END

*D_NET *18 0.14054

*CONN
*P *18 I *C 272 80.71 *L 0
*I *1090:PAD B *C 272 80.71 *L 0 *D PADDI
*I *970:A0 I *C 1012.18 335.375 *L 0.000211 *D AOI22XL

*CAP
1 *1090:PAD 0.00260983
2 *970:A0 2.2733e-05
3 *18:3 0.0159806
4 *18:4 0.02442311
5 *18:5 0.00551966
6 *18:6 0.000493791
7 *18:7 0.000493791
8 *18:8 0.00353927
9 *18:9 0.00261989
10 *18:10 0.00136286
11 *18:11 0.00135914
12 *18:12 8.01246e-05
13 *18:13 8.38514e-05
14 *18:18 0.0083706
15 *18:19 0.002643
16 *18:20 0.0140311
17 *18:21 0.00837619
18 *18:22 0.000990937
19 *18:23 0.000956278
20 *18:24 0.00374163
21 *18:25 1.78883e-05
22 *18:26 1.63976e-05
23 *18:27 2.72051e-05
24 *18:28 0.000990937
25 *18:29 0.00374163
26 *18:30 1.78883e-05
27 *18:5 *12:30 0.00028518
28 *18:3 *12:19 0.00028518
29 *18:5 *12:19 0.00452015
30 *18:3 *12:18 0.00452015
31 *18:3 *12:19 0.00208876
32 *18:4 *12:18 0.00208876
33 *18:3 *12:17 1.806e-05
34 *18:4 *12:15 1.80601563e-05
35 *18:6 *8:5 0.00052383
36 *18:7 *8:6 0.000523829993
37 *18:8 *7:17 2.555e-05
38 *18:9 *7:15 2.555e-05
39 *18:8 *7:13 3.194e-05
40 *18:9 *7:11 3.194e-05
41 *18:8 *7:14 0.00060692
42 *18:9 *7:12 0.000606920015
43 *18:5 *11:12 0.00480366
44 *18:3 *11:9 0.00480366
45 *18:3 *11:12 0.0002722
46 *18:4 *11:9 0.0002722
47 *18:6 *11:12 0.00054037
48 *18:7 *11:9 0.000540370262
49 *18:3 *14:15 0.00529841
50 *18:4 *14:12 0.00529840992

*RES
1 *1090:PAD *18:19 3.8627
2 *18:18 *18:19 0.0820107
3 *18:18 *18:21 30.344
4 *18:20 *18:21 0.598678
5 *18:3 *18:5 59.4783
6 *18:4 *18:3 81.7729
7 *18:20 *18:4 81.3013
8 *18:7 *18:5 0.106614
9 *18:30 *970:A0 8.75875
10 *18:17 *18:30 1.02103
11 *18:7 *18:6 5.56853
12 *18:12 *18:30 8.75875
13 *18:6 *18:9 0.106614
14 *18:13 *18:12 4.97805
15 *18:8 *18:23 5.44961
16 *18:9 *18:8 16.7753
17 *18:13 *18:10 1.02513
18 *18:22 *18:23 0.598678
19 *18:11 *18:10 97.3918
20 *18:22 *18:28 14.6512
21 *18:29 *18:11 8.75875
22 *18:16 *18:27 0.254233
23 *18:27 *18:28 2.16508
24 *18:24 *18:29 268.732727
25 *18:15 *18:26 1.01693
26 *18:26 *18:27 2.16508
27 *18:25 *18:24 8.75875
28 *18:25 *18:26 8.75875
29 *18:14 *18:25 1.01693
30 *1090:PAD *18 0.00820107
*END

*D_NET *19 0.241778

*CONN
*P *19 I *C 1949.29 1574 *L 0
*I *1089:PAD B *C 1949.29 1574 *L 0 *D PADDI
*I *965:B0 I *C 1074.3 766.175 *L 0.000211 *D AOI22XL

*CAP
1 *1089:PAD 0.00194718
2 *965:B0 2.27205e-05
3 *19:3 0.00601176
4 *19:4 0.0158541
5 *19:5 0.0155101
6 *19:6 0.0169467
7 *19:7 0.0113216
8 *19:8 5.26158e-05
9 *19:9 5.81963e-05
10 *19:10 0.00446437
11 *19:11 0.00770822
12 *19:12 0.00334987
13 *19:18 1.79372e-05
14 *19:19 1.79372e-05
15 *19:20 0.000157449
16 *19:21 0.000157449
17 *19:22 1.79372e-05
18 *19:23 1.63428e-05
19 *19:24 2.71051e-05
20 *19:25 0.0121818
21 *19:26 0.025189
22 *19:27 0.02612256
23 *19:28 0.019758
24 *19:29 0.00666906
25 *19:30 0.000288988
26 *19:31 0.000273044
27 *19:32 5.46088e-05
28 *19:33 7.0553e-05
29 *19:34 0.00198465
30 *19:8 *20:34 4.759e-05
31 *19:9 *20:31 4.759e-05
32 *19:10 *20:29 0.00329197
33 *19:11 *20:27 0.00329197
34 *19:3 *20:22 0.0009316
35 *19:4 *20:19 0.0009316
36 *19:3 *20:19 0.00353624
37 *19:4 *20:18 0.00353624
38 *19:4 *20:19 0.00305915
39 *19:5 *20:18 0.00305915
40 *19:11 *20:28 2.382e-05
41 *19:12 *20:24 2.382e-05
42 *19:11 *20:27 0.00244488
43 *19:12 *20:26 0.00244488032
44 *19:3 *54:33 0.00303538
45 *19:4 *54:16 0.00303538
46 *19:4 *54:16 0.00633401
47 *19:5 *54:15 0.00633401
48 *19:5 *54:15 0.00346603
49 *19:6 *54:14 0.00346603
50 *19:6 *54:15 0.00315048
51 *19:7 *54:14 0.00315048
52 *19:6 *54:14 0.00344194
53 *19:7 *54:13 0.0034419398

*RES
1 *19:34 *1089:PAD 3.81992
2 *19:8 *19:34 0.0811023
3 *19:9 *19:8 0.124357
4 *19:10 *19:9 0.597453
5 *19:11 *19:10 34.0413
6 *19:12 *19:11 26.1257
7 *19:32 *19:12 0.597453
8 *19:32 *19:33 0.638004
9 *19:30 *19:33 0.556902
10 *19:30 *19:31 3.99293
11 *19:3 *19:31 0.597453
12 *19:4 *19:3 56.5445
13 *19:5 *19:4 83.0271
14 *19:6 *19:5 43.4924
15 *19:7 *19:6 83.0271
16 *19:29 *19:7 0.597453
17 *19:28 *19:29 89.7126
18 *19:27 *19:28 177.170593
19 *19:26 *19:27 177.170593
20 *19:25 *19:26 177.170593
21 *19:17 *19:24 0.251417
22 *19:24 *19:25 2.16543
23 *19:16 *19:23 1.02189
24 *19:23 *19:24 2.16543
25 *19:15 *19:22 1.02189
26 *19:22 *19:23 8.76175
27 *19:21 *19:22 8.76175
28 *19:20 *19:21 10.7623
29 *19:14 *19:19 1.02189
30 *19:19 *19:20 8.76175
31 *19:18 *965:B0 8.76175
32 *19:18 *19:19 8.76175
33 *19:13 *19:18 1.02189
34 *1089:PAD *19 0.00540682
*END

*D_NET *20 0.0899793

*CONN
*P *20 I *C 1949.29 1512 *L 0
*I *1088:PAD B *C 1949.29 1512 *L 0 *D PADDI
*I *987:A0 I *C 1392.38 1509.905 *L 0.000211 *D AOI22XL

*CAP
1 *1088:PAD 0.00194413
2 *987:A0 2.26994e-05
3 *20:3 0.00176292
4 *20:4 0.00176292
5 *20:8 0.00101639
6 *20:9 0.00680767
7 *20:10 0.00580929
8 *20:11 7.39688e-05
9 *20:12 7.39688e-05
10 *20:13 1.78073e-05
11 *20:14 1.62418e-05
12 *20:15 2.72002e-05
13 *20:16 2.34822e-05
14 *20:17 2.34822e-05
15 *20:18 0.0111057
16 *20:19 0.01282419
17 *20:20 0.000170441
18 *20:21 0.000169072
19 *20:22 0.00176077
20 *20:23 0.0001587
21 *20:24 6.00752e-05
22 *20:25 0.00016007
23 *20:26 0.00324249
24 *20:27 0.00757143
25 *20:28 5.4596e-05
26 *20:29 0.00436044
27 *20:30 5.36176e-05
28 *20:31 6.24234e-05
29 *20:32 0.0019815
30 *20:33 0.000122694
31 *20:34 6.82939e-05
32 *20:34 *19:8 4.759e-05
33 *20:31 *19:9 4.759e-05
34 *20:29 *19:10 0.00329197
35 *20:27 *19:11 0.00329197
36 *20:22 *19:3 0.0009316
37 *20:19 *19:4 0.0009316
38 *20:19 *19:3 0.00353624
39 *20:18 *19:4 0.00353624
40 *20:19 *19:4 0.00305915
41 *20:18 *19:5 0.00305915
42 *20:28 *19:11 2.382e-05
43 *20:24 *19:12 2.382e-05
44 *20:27 *19:11 0.00244488
45 *20:26 *19:12 0.00244488032

*RES
1 *1088:PAD *20:32 3.81708
2 *20:31 *20:32 0.0769831
3 *20:31 *20:34 0.205288
4 *20:33 *20:34 0.596619
5 *20:30 *20:33 0.218119
6 *20:29 *20:30 0.109059
7 *20:27 *20:29 33.5326
8 *20:26 *20:27 24.904
9 *20:26 *20:28 0.102644
10 *20:24 *20:28 0.288687
11 *20:23 *20:24 0.596619
12 *20:23 *20:25 2.23893
13 *20:20 *20:25 0.275856
14 *20:20 *20:21 2.39931
15 *20:4 *987:A0 8.76325
16 *20:22 *20:21 0.596619
17 *20:4 *20:3 133.181
18 *20:19 *20:22 12.8626
19 *20:18 *20:19 82.1795
20 *20:8 *20:3 8.76325
21 *20:17 *20:18 0.596619
22 *20:9 *20:10 420.430573
23 *20:8 *20:9 73.0378
24 *20:16 *20:17 0.153966
25 *20:11 *20:10 8.76325
26 *20:7 *20:15 0.250195
27 *20:15 *20:16 2.16194
28 *20:11 *20:12 4.7088
29 *20:6 *20:14 1.02003
30 *20:14 *20:15 2.16194
31 *20:13 *20:12 8.76325
32 *20:13 *20:14 8.76325
33 *20:5 *20:13 1.02003
34 *1088:PAD *20 0.00641526
*END

*D_NET *21 0.0353824

*CONN
*P *21 I *C 1949.29 1450 *L 0
*I *1087:PAD B *C 1949.29 1450 *L 0 *D PADDI
*I *988:B0 I *C 1781.7 1446.755 *L 0.000211 *D AOI22XL

*CAP
1 *1087:PAD 0.00194724
2 *21:3 0.00116505
3 *21:4 0.00116505
4 *21:5 0.000504437
5 *21:6 0.000504437
6 *21:11 0.00362723
7 *21:12 0.00800831
8 *21:13 1.24643e-05
9 *21:16 1.24643e-05
10 *21:17 9.77592e-06
11 *21:19 9.77592e-06
12 *21:20 0.00438108
13 *21:22 0.00194724
14 *21:20 *22:18 0.00329558
15 *21:12 *22:19 0.00329558
16 *21:12 *22:19 0.00274834
17 *21:11 *22:20 0.00274834025

*RES
1 *21:22 *1087:PAD 3.81982
2 *21:10 *21:21 0.0773243
3 *21:21 *21:22 0.0800859
4 *21:20 *21:21 0.596502
5 *21:12 *21:20 33.752
6 *21:11 *21:12 27.9936
7 *21:18 *988:B0 8.76084
8 *21:9 *21:18 1.0135
9 *21:4 *21:11 0.596502
10 *21:19 *21:18 8.76084
11 *21:4 *21:3 14.2409
12 *21:17 *21:19 0.701994
13 *21:13 *21:3 2.16508
14 *21:5 *21:17 8.76084
15 *21:13 *21:16 0.167904
16 *21:6 *21:5 36.1966019
17 *21:8 *21:15 0.214299
18 *21:15 *21:16 2.16508
19 *21:14 *21:6 8.76084
20 *21:14 *21:15 8.76084
21 *21:7 *21:14 1.01295
22 *1087:PAD *21 0.0066278
*END

*D_NET *22 0.172045

*CONN
*P *22 I *C 1949.29 1388 *L 0
*I *1086:PAD B *C 1949.29 1388 *L 0 *D PADDI
*I *993:A0 I *C 1326.38 583.085 *L 0.000211 *D AOI22XL

*CAP
1 *1086:PAD 0.00194094
2 *993:A0 2.27141e-05
3 *22:3 0.0153947
4 *22:4 0.02096577
5 *22:5 0.0102242
6 *22:6 0.00513627
7 *22:7 0.00513179
8 *22:8 0.00278168
9 *22:9 0.00278168
10 *22:10 6.01444e-05
11 *22:11 6.01444e-05
12 *22:12 4.06295e-05
13 *22:13 4.06295e-05
14 *22:14 3.83901e-05
15 *22:15 3.83901e-05
16 *22:16 8.28585e-05
17 *22:17 8.28585e-05
18 *22:18 0.00443437
19 *22:19 0.0110317
20 *22:20 0.00670354
21 *22:24 0.0046484
22 *22:25 4.79876e-05
23 *22:26 4.79876e-05
24 *22:27 1.79154e-05
25 *22:28 1.79154e-05
26 *22:29 1.63158e-05
27 *22:30 7.61403e-05
28 *22:31 7.61403e-05
29 *22:32 0.00259453
30 *22:33 0.00259453
31 *22:34 0.00537589
32 *22:35 0.0195409
33 *22:36 0.020356
34 *22:37 0.00342599
35 *22:38 0.00619104
36 *22:39 0.00342599
37 *22:40 4.47884e-05
38 *22:41 7.77399e-05
39 *22:42 5.05469e-05
40 *22:43 0.00198541
41 *22:18 *21:20 0.00329558
42 *22:19 *21:12 0.00329558
43 *22:19 *21:12 0.00274834
44 *22:20 *21:11 0.00274834025
45 *22:3 *366:6 6.49e-06
46 *22:4 *366:2 6.49e-06
47 *22:3 *366:4 4.84e-06
48 *22:4 *366:3 4.84e-06
49 *22:4 *366:2 0.00062081
50 *22:5 *366:5 0.000620809976
51 *22:6 *367:15 0.00034478
52 *22:7 *367:14 0.00034478
53 *22:8 *367:15 0.00017966
54 *22:9 *367:14 0.00017966
55 *22:8 *367:11 1.027e-05
56 *22:9 *367:10 1.027e-05
57 *22:10 *367:13 7.52e-06
58 *22:11 *367:12 7.52e-06
59 *22:8 *367:8 1.06e-06
60 *22:9 *367:7 1.05998255e-06

*RES
1 *22:9 *993:A0 8.76079
2 *1086:PAD *22:43 3.80752
3 *22:9 *22:8 222.863
4 *22:41 *22:43 0.0659196
5 *22:13 *22:8 8.76079
6 *22:40 *22:41 0.0801725
7 *22:13 *22:12 2.1327
8 *22:40 *22:42 0.071688
9 *22:17 *22:12 8.76079
10 *22:18 *22:42 0.59663
11 *22:17 *22:16 4.7192
12 *22:19 *22:18 33.5678
13 *22:20 *22:19 45.8036
14 *22:14 *22:16 8.76079
15 *22:39 *22:20 0.59663
16 *22:15 *22:14 2.12688
17 *22:37 *22:39 49.6858
18 *22:7 *22:15 8.76079
19 *22:38 *22:37 0.59663
20 *22:7 *22:6 413.992
21 *22:36 *22:38 36.5816
22 *22:35 *22:36 83.1669
23 *22:34 *22:35 31.7485
24 *22:11 *22:6 1.07968
25 *22:33 *22:34 0.59663
26 *22:11 *22:10 5.01286
27 *22:32 *22:33 37.5673
28 *22:10 *22:5 1.07968
29 *22:31 *22:32 2.16491
30 *22:3 *22:24 355.006
31 *22:4 *22:3 786.777
32 *22:5 *22:4 790.06
33 *22:30 *22:31 0.797269
34 *22:25 *22:24 8.76079
35 *22:23 *22:29 1.02178
36 *22:29 *22:30 2.16491
37 *22:25 *22:26 2.83194
38 *22:22 *22:28 1.02178
39 *22:28 *22:29 8.76079
40 *22:27 *22:26 8.76079
41 *22:27 *22:28 8.76079
42 *22:21 *22:27 1.02178
43 *1086:PAD *22 0.00653203
*END

*D_NET *23 0.0295476

*CONN
*P *23 I *C 1949.29 1326 *L 0
*I *1085:PAD B *C 1949.29 1326 *L 0 *D PADDI
*I *994:B0 I *C 1781.9 1327.0551 *L 0.000211 *D AOI22XL

*CAP
1 *1085:PAD 0.00193136
2 *994:B0 2.26268e-05
3 *23:3 1.90711e-05
4 *23:4 1.90711e-05
5 *23:5 0.00102208
6 *23:6 0.00102208
7 *23:12 3.84655e-05
8 *23:13 0.00482322
9 *23:14 0.01059176
10 *23:15 1.79398e-05
11 *23:16 1.79398e-05
12 *23:17 1.63236e-05
13 *23:18 3.84655e-05
14 *23:19 1.79398e-05
15 *23:20 2.98997e-05
16 *23:21 0.00196885
17 *23:22 0.00587456
18 *23:23 3.5718e-05
19 *23:5 *50:11 0.00051006
20 *23:6 *50:12 0.000510060004
21 *23:5 *55:33 0.00051006
22 *23:6 *55:32 0.000510060004

*RES
1 *1085:PAD *23:21 3.79512
2 *23:20 *23:21 0.0803418
3 *23:11 *23:23 0.0257506
4 *23:20 *23:23 0.0180254
5 *23:22 *23:23 0.596383
6 *23:14 *23:22 33.7517853
7 *23:13 *23:14 27.994
8 *23:5 *23:13 0.596383
9 *23:6 *23:5 24.7988
10 *23:12 *23:6 2.16511
11 *23:19 *994:B0 8.76086
12 *23:10 *23:19 1.01406
13 *23:12 *23:18 0.335787
14 *23:3 *23:19 8.76086
15 *23:9 *23:17 1.01303
16 *23:17 *23:18 2.16511
17 *23:4 *23:3 0.705051
18 *23:8 *23:16 1.01303
19 *23:16 *23:17 8.76086
20 *23:15 *23:4 8.76086
21 *23:15 *23:16 8.76086
22 *23:7 *23:15 1.01406
23 *1085:PAD *23 0.00669515
*END

*D_NET *24 0.0284909

*CONN
*P *24 I *C 1949.29 1264 *L 0
*I *1084:PAD B *C 1949.29 1264 *L 0 *D PADDI
*I *989:B0 I *C 1782.3 1267.205 *L 0.000211 *D AOI22XL

*CAP
1 *1084:PAD 0.00194716
2 *989:B0 2.26526e-05
3 *24:3 0.00083895
4 *24:4 0.00083895
5 *24:5 0.000757657
6 *24:6 0.000757657
7 *24:12 1.75116e-05
8 *24:13 1.75116e-05
9 *24:14 1.78329e-05
10 *24:15 1.78329e-05
11 *24:16 1.62263e-05
12 *24:17 2.7151e-05
13 *24:18 0.0047601
14 *24:19 0.01052864
15 *24:20 0.00587457
16 *24:21 3.58265e-05
17 *24:22 3.00428e-05
18 *24:23 0.00198459

*RES
1 *1084:PAD *24:23 3.81981
2 *24:22 *24:23 0.0801416
3 *24:11 *24:21 0.0588796
4 *24:21 *24:22 0.017991
5 *24:20 *24:21 0.596973
6 *24:19 *24:20 33.7519
7 *24:18 *24:19 27.626
8 *24:3 *24:18 0.596973
9 *24:4 *24:3 10.0578
10 *24:10 *24:17 0.263322
11 *24:17 *24:4 2.16464
12 *24:9 *24:16 0.214256
13 *24:16 *24:17 2.16464
14 *24:8 *24:15 1.0124
15 *24:15 *24:16 8.76079
16 *24:12 *989:B0 8.76079
17 *24:5 *24:15 8.76079
18 *24:12 *24:13 0.666484
19 *24:6 *24:5 53.5934792
20 *24:14 *24:13 8.76079
21 *24:14 *24:6 8.76079
22 *24:7 *24:14 1.0124
23 *1084:PAD *24 0.00654217
*END

*D_NET *25 0.0286891

*CONN
*P *25 I *C 1949.29 1202 *L 0
*I *1083:PAD B *C 1949.29 1202 *L 0 *D PADDI
*I *990:B0 I *C 1782.3 1200.515 *L 0.000211 *D AOI22XL

*CAP
1 *1083:PAD 0.0019122
2 *990:B0 2.25983e-05
3 *25:3 2.85283e-05
4 *25:4 2.85283e-05
5 *25:5 0.00156248
6 *25:6 0.00156248
7 *25:11 1.79504e-05
8 *25:12 0.0047349
9 *25:13 0.01050338
10 *25:14 0.00017742
11 *25:15 1.79504e-05
12 *25:16 1.61874e-05
13 *25:17 2.70858e-05
14 *25:18 0.00017742
15 *25:19 0.00587458
16 *25:20 4.07089e-05
17 *25:21 3.49391e-05
18 *25:22 0.0019497

*RES
1 *25:22 *1083:PAD 3.75752
2 *25:21 *25:22 0.0803418
3 *25:20 *25:21 0.0360508
4 *25:19 *25:20 0.596383
5 *25:13 *25:19 33.7517853
6 *25:12 *25:13 27.4784
7 *25:6 *25:12 0.596383
8 *25:6 *25:5 21.5682
9 *25:10 *25:17 0.263686
10 *25:17 *25:5 2.16511
11 *25:9 *25:16 0.214245
12 *25:16 *25:17 2.16511
13 *25:8 *25:15 1.01303
14 *25:15 *25:16 8.76086
15 *25:14 *25:15 8.76086
16 *25:14 *25:18 12.0157
17 *25:3 *25:18 8.76086
18 *25:4 *25:3 1.4101
19 *25:11 *990:B0 8.76086
20 *25:11 *25:4 8.76086
21 *25:7 *25:11 1.01457
22 *1083:PAD *25 0.00669515
*END

*D_NET *26 0.0284743

*CONN
*P *26 I *C 1949.29 1140 *L 0
*I *1082:PAD B *C 1949.29 1140 *L 0 *D PADDI
*I *992:B0 I *C 1782.3 1138.955 *L 0.000211 *D AOI22XL

*CAP
1 *1082:PAD 0.00194411
2 *992:B0 2.26526e-05
3 *26:9 0.00129264
4 *26:10 0.0047601
5 *26:11 0.01052864
6 *26:12 0.000307336
7 *26:13 1.78329e-05
8 *26:14 1.62263e-05
9 *26:15 2.7151e-05
10 *26:16 0.00129264
11 *26:17 1.78329e-05
12 *26:18 1.78329e-05
13 *26:19 0.000307336
14 *26:20 3.00428e-05
15 *26:21 0.00198154
16 *26:22 0.00587457
17 *26:23 3.58265e-05

*RES
1 *26:21 *1082:PAD 3.81984
2 *26:8 *26:20 0.0571663
3 *26:20 *26:21 0.0803418
4 *26:20 *26:23 0.0180254
5 *26:22 *26:23 0.596383
6 *26:11 *26:22 33.7517853
7 *26:10 *26:11 27.6257
8 *26:17 *992:B0 8.76086
9 *26:6 *26:17 0.214245
10 *26:9 *26:10 0.596383
11 *26:18 *26:17 8.76086
12 *26:7 *26:18 1.012
13 *26:9 *26:16 19.6132
14 *26:19 *26:18 8.76086
15 *26:5 *26:15 0.263171
16 *26:15 *26:16 2.16511
17 *26:12 *26:19 21.3477
18 *26:4 *26:14 1.012
19 *26:14 *26:15 2.16511
20 *26:13 *26:12 8.76086
21 *26:13 *26:14 8.76086
22 *26:3 *26:13 1.012
23 *1082:PAD *26 0.00669515
*END

*D_NET *27 0.0355396

*CONN
*P *27 I *C 1949.29 1078 *L 0
*I *1081:PAD B *C 1949.29 1078 *L 0 *D PADDI
*I *991:B0 I *C 1781.7 1080.8149 *L 0.000211 *D AOI22XL

*CAP
1 *1081:PAD 0.00191524
2 *991:B0 2.27132e-05
3 *27:3 0.00106208
4 *27:4 0.00106208
5 *27:8 0.000145625
6 *27:9 0.000145625
7 *27:10 1.7863e-05
8 *27:11 1.7863e-05
9 *27:12 1.62068e-05
10 *27:13 0.000138408
11 *27:14 0.000710142
12 *27:15 0.00340047
13 *27:16 0.00775265
14 *27:17 0.000138408
15 *27:18 0.000710142
16 *27:19 0.00445817
17 *27:20 6.53004e-05
18 *27:21 5.95038e-05
19 *27:22 0.00195274
20 *27:19 *28:7 0.00331365
21 *27:16 *28:8 0.00331365
22 *27:16 *28:8 0.00256049
23 *27:15 *28:9 0.00256049013

*RES
1 *27:22 *1081:PAD 3.75744
2 *27:21 *27:22 0.0804167
3 *27:20 *27:21 0.12587
4 *27:19 *27:20 0.596715
5 *27:16 *27:19 33.7517
6 *27:15 *27:16 26.0807
7 *27:14 *27:15 0.596715
8 *27:14 *27:18 10.6861
9 *27:3 *991:B0 8.76076
10 *27:17 *27:18 2.16542
11 *27:4 *27:3 76.3795471
12 *27:13 *27:17 1.67943
13 *27:8 *27:4 8.76076
14 *27:7 *27:12 1.01278
15 *27:12 *27:13 2.16542
16 *27:8 *27:9 9.82948
17 *27:6 *27:11 1.01278
18 *27:11 *27:12 8.76076
19 *27:10 *27:9 8.76076
20 *27:10 *27:11 8.76076
21 *27:5 *27:10 1.01395
22 *1081:PAD *27 0.00699276
*END

*D_NET *28 0.0354784

*CONN
*P *28 I *C 1949.29 1016 *L 0
*I *1080:PAD B *C 1949.29 1016 *L 0 *D PADDI
*I *983:A0 I *C 1776.38 1019.375 *L 0.000211 *D AOI22XL

*CAP
1 *1080:PAD 0.00194411
2 *983:A0 2.26429e-05
3 *28:3 0.000212818
4 *28:4 0.000212818
5 *28:5 0.0011296
6 *28:6 0.0011296
7 *28:7 0.00447388
8 *28:8 0.00833653
9 *28:9 0.00396861
10 *28:13 3.82894e-05
11 *28:14 3.82894e-05
12 *28:15 1.79362e-05
13 *28:16 1.79362e-05
14 *28:17 1.62825e-05
15 *28:18 5.19006e-05
16 *28:19 5.19006e-05
17 *28:20 4.56674e-05
18 *28:21 3.98159e-05
19 *28:22 0.00198151
20 *28:7 *27:19 0.00331365
21 *28:8 *27:16 0.00331365
22 *28:8 *27:16 0.00256049
23 *28:9 *27:15 0.00256049013

*RES
1 *1080:PAD *28:22 3.81969
2 *28:21 *28:22 0.0795502
3 *28:20 *28:21 0.0538889
4 *28:7 *28:20 0.596627
5 *28:8 *28:7 33.9846
6 *28:9 *28:8 29.3925
7 *28:3 *28:9 0.596627
8 *28:4 *28:3 2.70727
9 *28:6 *983:A0 8.76079
10 *28:19 *28:4 2.16454
11 *28:6 *28:5 84.0871429
12 *28:18 *28:19 0.502963
13 *28:13 *28:5 8.76079
14 *28:12 *28:17 0.214272
15 *28:17 *28:18 2.16454
16 *28:13 *28:14 2.10423
17 *28:11 *28:16 1.01234
18 *28:16 *28:17 8.76079
19 *28:15 *28:14 8.76079
20 *28:15 *28:16 8.76079
21 *28:10 *28:15 0.214272
22 *1080:PAD *28 0.00641534
*END

*D_NET *29 0.0364867

*CONN
*P *29 I *C 1949.29 954 *L 0
*I *1079:PAD B *C 1949.29 954 *L 0 *D PADDI
*I *980:A0 I *C 1779.38 954.395 *L 0.000211 *D AOI22XL

*CAP
1 *1079:PAD 0.00191222
2 *980:A0 2.26999e-05
3 *29:3 0.000706023
4 *29:4 0.000706023
5 *29:5 1.89351e-05
6 *29:6 1.89351e-05
7 *29:7 0.00105859
8 *29:8 0.00105859
9 *29:9 0.00363586
10 *29:10 0.00725678
11 *29:11 9.91046e-05
12 *29:12 3.01189e-05
13 *29:13 0.00365801
14 *29:17 1.79385e-05
15 *29:18 1.79385e-05
16 *29:19 1.62775e-05
17 *29:20 0.00011505
18 *29:21 0.00011505
19 *29:22 3.98633e-05
20 *29:23 6.93178e-05
21 *29:24 4.56213e-05
22 *29:25 0.000120919
23 *29:26 0.00123421
24 *29:27 0.000120919
25 *29:28 0.00123421
26 *29:29 0.000120919
27 *29:30 0.00200136
28 *29:9 *30:24 0.00274285
29 *29:10 *30:21 0.00274285
30 *29:11 *30:24 1.916e-05
31 *29:12 *30:21 1.916e-05
32 *29:10 *30:21 0.00275557
33 *29:13 *30:20 0.00275557003

*RES
1 *29:30 *1079:PAD 3.75739
2 *29:29 *29:30 0.13176
3 *29:28 *29:29 0.0629193
4 *29:26 *29:28 1.77951
5 *29:26 *29:27 0.0629193
6 *29:25 *29:27 0.13176
7 *29:23 *29:25 0.0629193
8 *29:22 *29:23 0.0799445
9 *29:22 *29:24 0.0540366
10 *29:11 *29:24 0.596623
11 *29:12 *29:11 0.110294
12 *29:12 *29:9 0.106593
13 *29:10 *29:9 27.9376
14 *29:13 *29:10 28.0672
15 *29:8 *29:13 0.596623
16 *29:8 *29:7 14.1902
17 *29:21 *29:7 2.16516
18 *29:20 *29:21 1.34351
19 *29:16 *29:19 0.213926
20 *29:19 *29:20 2.16516
21 *29:15 *29:18 1.01337
22 *29:18 *29:19 8.76059
23 *29:4 *29:18 8.76059
24 *29:4 *29:3 48.5115128
25 *29:5 *29:3 8.76059
26 *29:6 *29:5 0.707657
27 *29:17 *980:A0 8.76059
28 *29:17 *29:6 8.76059
29 *29:14 *29:17 1.01559
30 *1079:PAD *29 0.00666204
*END

*D_NET *30 0.0353727

*CONN
*P *30 I *C 1949.29 892 *L 0
*I *1078:PAD B *C 1949.29 892 *L 0 *D PADDI
*I *981:A0 I *C 1780.38 892.835 *L 0.000211 *D AOI22XL

*CAP
1 *1078:PAD 0.0019379
2 *981:A0 2.11476e-05
3 *30:3 2.29099e-05
4 *30:4 2.29099e-05
5 *30:5 3.39872e-05
6 *30:6 0.000430504
7 *30:7 0.000435287
8 *30:8 0.000250624
9 *30:9 0.000245966
10 *30:10 2.39169e-05
11 *30:11 2.39169e-05
12 *30:12 0.0010468
13 *30:13 0.0010468
14 *30:16 3.77635e-05
15 *30:17 3.77635e-05
16 *30:18 1.62383e-05
17 *30:19 2.71897e-05
18 *30:20 0.00365803
19 *30:21 0.00824944
20 *30:22 4.48127e-05
21 *30:23 0.00197528
22 *30:24 0.00469753
23 *30:25 5.06031e-05
24 *30:24 *29:9 0.00274285
25 *30:21 *29:10 0.00274285
26 *30:24 *29:11 1.916e-05
27 *30:21 *29:12 1.916e-05
28 *30:21 *29:10 0.00275557
29 *30:20 *29:13 0.00275557003

*RES
1 *30:5 *981:A0 1.18659
2 *30:4 *30:5 8.76086
3 *30:4 *30:3 1.49868
4 *30:11 *30:3 8.76086
5 *1078:PAD *30:23 3.80748
6 *30:11 *30:10 1.56769
7 *30:22 *30:23 0.0803418
8 *30:9 *30:10 8.76086
9 *30:22 *30:25 0.0715866
10 *30:9 *30:8 16.7652
11 *30:24 *30:25 0.596383
12 *30:8 *30:7 1.07174
13 *30:21 *30:24 33.7517853
14 *30:20 *30:21 28.0676
15 *30:7 *30:6 30.2255
16 *30:12 *30:20 0.596383
17 *30:16 *30:6 8.76086
18 *30:13 *30:12 14.0114
19 *30:16 *30:17 2.10382
20 *30:15 *30:19 0.263171
21 *30:19 *30:13 2.16511
22 *30:18 *30:17 8.76086
23 *30:18 *30:19 2.16511
24 *30:14 *30:18 0.21373
25 *1078:PAD *30 0.00669515
*END

*D_NET *31 0.0286291

*CONN
*P *31 I *C 1949.29 830 *L 0
*I *1077:PAD B *C 1949.29 830 *L 0 *D PADDI
*I *985:A0 I *C 1779.98 831.275 *L 0.000211 *D AOI22XL

*CAP
1 *1077:PAD 0.00148747
2 *985:A0 2.2599e-05
3 *31:3 4.14587e-05
4 *31:4 4.14587e-05
5 *31:5 0.00121319
6 *31:6 0.00121319
7 *31:7 4.04832e-05
8 *31:8 4.17838e-05
9 *31:9 4.17838e-05
10 *31:10 4.04832e-05
11 *31:11 0.000308095
12 *31:12 0.000308095
13 *31:16 3.56057e-05
14 *31:17 3.56057e-05
15 *31:18 1.78841e-05
16 *31:19 1.62583e-05
17 *31:20 2.71514e-05
18 *31:21 0.00488627
19 *31:22 0.01065488
20 *31:23 0.000375079
21 *31:24 0.00152503
22 *31:25 0.00587461
23 *31:26 0.000380769

*RES
1 *1077:PAD *31:24 2.91796
2 *31:23 *31:24 0.0796151
3 *31:23 *31:26 1.27258
4 *31:25 *31:26 0.596481
5 *31:22 *31:25 33.7517
6 *31:21 *31:22 28.3619
7 *31:7 *31:21 0.596481
8 *31:8 *31:7 0.31846
9 *31:4 *985:A0 8.76018
10 *31:11 *31:8 0.278021
11 *31:4 *31:3 2.19005
12 *31:12 *31:11 3.97949
13 *31:16 *31:3 8.76018
14 *31:12 *31:9 0.278021
15 *31:16 *31:17 1.40401
16 *31:10 *31:9 0.31846
17 *31:6 *31:17 8.76018
18 *31:15 *31:20 0.262856
19 *31:20 *31:10 2.16477
20 *31:6 *31:5 82.8198853
21 *31:14 *31:19 0.213571
22 *31:19 *31:20 2.16477
23 *31:18 *31:5 8.76018
24 *31:18 *31:19 8.76018
25 *31:13 *31:18 1.01225
26 *1077:PAD *31 0.00631866
*END

*D_NET *32 0.0571273

*CONN
*P *32 I *C 1636 1949.29 *L 0
*I *1076:PAD B *C 1636 1949.29 *L 0 *D PADDI
*I *984:A0 I *C 1635.98 1448.345 *L 0.000211 *D AOI22XL

*CAP
1 *1076:PAD 0.00262745
2 *984:A0 2.26021e-05
3 *32:3 0.00387057
4 *32:4 0.00386598
5 *32:8 0.0102721
6 *32:9 0.01113706
7 *32:10 0.00088743
8 *32:11 0.00151281
9 *32:12 0.00151281
10 *32:13 1.81836e-05
11 *32:14 1.81836e-05
12 *32:15 1.78438e-05
13 *32:16 1.63143e-05
14 *32:17 2.60009e-05
15 *32:18 2.60009e-05
16 *32:19 2.61709e-05
17 *32:20 0.000127286
18 *32:21 0.00924375
19 *32:22 0.00923797
20 *32:23 0.00266076

*RES
1 *32:4 *984:A0 8.76079
2 *1076:PAD *32:23 3.88926
3 *32:4 *32:3 295.686
4 *32:22 *32:23 0.0801725
5 *32:3 *32:8 1.07968
6 *32:21 *32:22 33.2453
7 *32:9 *32:10 66.1896
8 *32:8 *32:9 786.651
9 *32:20 *32:21 0.59663
10 *32:11 *32:10 8.76079
11 *32:7 *32:19 0.253428
12 *32:19 *32:20 0.59663
13 *32:11 *32:12 108.324
14 *32:18 *32:19 2.16491
15 *32:13 *32:12 8.76079
16 *32:17 *32:18 0.161382
17 *32:13 *32:14 0.668221
18 *32:6 *32:16 1.01514
19 *32:16 *32:17 2.16491
20 *32:15 *32:14 8.76079
21 *32:15 *32:16 8.76079
22 *32:5 *32:15 1.01514
23 *1076:PAD *32 0.00653203
*END

*D_NET *33 0.090834

*CONN
*P *33 I *C 1574 1949.29 *L 0
*I *1075:PAD B *C 1574 1949.29 *L 0 *D PADDI
*I *982:A0 I *C 1574.38 1385.3149 *L 0.000211 *D AOI22XL

*CAP
1 *1075:PAD 0.00262766
2 *982:A0 2.25978e-05
3 *33:3 0.00734361
4 *33:4 0.00736089
5 *33:8 0.00266089
6 *33:9 0.0020225
7 *33:10 7.6766e-05
8 *33:11 1.82776e-05
9 *33:12 1.62837e-05
10 *33:13 2.5921e-05
11 *33:14 2.5921e-05
12 *33:15 2.5921e-05
13 *33:16 1.79453e-05
14 *33:17 1.79453e-05
15 *33:18 1.82776e-05
16 *33:19 2.5921e-05
17 *33:20 0.0126003
18 *33:21 0.0217786
19 *33:22 0.0092046
20 *33:23 0.00195903
21 *33:3 *34:23 0.0114424
22 *33:4 *34:22 0.0114424
23 *33:3 *34:21 4.975e-05
24 *33:4 *34:20 4.9690832e-05

*RES
1 *33:8 *1075:PAD 3.88923
2 *33:3 *33:8 0.0814782
3 *33:4 *33:3 32.833
4 *33:4 *33:10 0.114069
5 *33:14 *982:A0 8.76162
6 *33:9 *33:10 0.597507
7 *33:14 *33:15 1.34439
8 *33:9 *33:23 11.1679
9 *33:16 *33:15 8.76162
10 *33:6 *33:16 1.02119
11 *33:22 *33:23 0.597507
12 *33:17 *33:16 8.76162
13 *33:7 *33:17 1.02119
14 *33:21 *33:22 134.439
15 *33:20 *33:21 177.991837
16 *33:18 *33:17 8.76162
17 *33:19 *33:20 2.1646
18 *33:11 *33:18 0.70886
19 *33:13 *33:19 0.16024
20 *33:12 *33:11 8.76162
21 *33:12 *33:13 2.1646
22 *33:5 *33:12 1.02119
23 *1075:PAD *33 0.00543188
*END

*D_NET *34 0.0900909

*CONN
*P *34 I *C 1512 1949.29 *L 0
*I *1074:PAD B *C 1512 1949.29 *L 0 *D PADDI
*I *986:A0 I *C 1508.98 1328.645 *L 0.000211 *D AOI22XL

*CAP
1 *1074:PAD 0.00258312
2 *986:A0 2.25613e-05
3 *34:3 0.01920198
4 *34:4 0.0106173
5 *34:8 0.00860229
6 *34:9 4.80526e-05
7 *34:10 4.80526e-05
8 *34:11 1.78732e-05
9 *34:12 1.78732e-05
10 *34:13 1.64082e-05
11 *34:14 6.35817e-05
12 *34:15 6.35817e-05
13 *34:16 0.00274925
14 *34:17 0.00274925
15 *34:18 0.00201586
16 *34:19 0.00207945
17 *34:20 0.000147088
18 *34:21 0.000158222
19 *34:22 0.00665323
20 *34:23 0.00663594
21 *34:24 0.00261623
22 *34:23 *33:3 0.0114424
23 *34:22 *33:4 0.0114424
24 *34:21 *33:3 4.975e-05
25 *34:20 *33:4 4.9690832e-05

*RES
1 *1074:PAD *34:24 3.82334
2 *34:23 *34:24 0.0801725
3 *34:22 *34:23 30.1627
4 *34:21 *34:22 0.11483
5 *34:20 *34:21 0.426466
6 *34:19 *34:20 0.59663
7 *34:18 *34:19 11.4974
8 *34:17 *34:18 0.59663
9 *34:16 *34:17 40.5133
10 *34:4 *986:A0 8.76079
11 *34:15 *34:16 2.16491
12 *34:3 *34:8 658.739
13 *34:4 *34:3 787.712
14 *34:14 *34:15 0.637815
15 *34:9 *34:8 8.76079
16 *34:7 *34:13 1.02178
17 *34:13 *34:14 2.16491
18 *34:9 *34:10 2.83194
19 *34:6 *34:12 1.02178
20 *34:12 *34:13 8.76079
21 *34:11 *34:10 8.76079
22 *34:11 *34:12 8.76079
23 *34:5 *34:11 1.02178
24 *1074:PAD *34 0.00653203
*END

*D_NET *35 0.0840276

*CONN
*P *35 I *C 1450 1949.29 *L 0
*I *1073:PAD B *C 1450 1949.29 *L 0 *D PADDI
*I *979:A0 I *C 1450.78 1267.085 *L 0.000211 *D AOI22XL

*CAP
1 *1073:PAD 0.00262739
2 *979:A0 2.26792e-05
3 *35:7 2.60811e-05
4 *35:8 2.60811e-05
5 *35:9 1.77654e-05
6 *35:10 0.000537875
7 *35:11 0.000537875
8 *35:12 1.77654e-05
9 *35:13 1.62534e-05
10 *35:14 2.7215e-05
11 *35:15 0.0121961
12 *35:16 0.02477136
13 *35:17 0.015324
14 *35:18 0.00274872
15 *35:19 0.00190846
16 *35:20 0.00197196
17 *35:21 7.67313e-05
18 *35:22 0.00926483
19 *35:23 0.00924782
20 *35:24 0.00266065

*RES
1 *1073:PAD *35:24 3.89021
2 *35:23 *35:24 0.0811023
3 *35:22 *35:23 33.2817
4 *35:21 *35:22 0.113543
5 *35:20 *35:21 0.597453
6 *35:19 *35:20 10.9948
7 *35:18 *35:19 0.597453
8 *35:17 *35:18 39.8131
9 *35:16 *35:17 177.170593
10 *35:15 *35:16 177.170593
11 *35:6 *35:14 0.251417
12 *35:14 *35:15 2.16543
13 *35:5 *35:13 1.02189
14 *35:13 *35:14 2.16543
15 *35:4 *35:12 1.02189
16 *35:12 *35:13 8.76175
17 *35:7 *979:A0 8.76175
18 *35:11 *35:12 8.76175
19 *35:7 *35:8 1.3463
20 *35:10 *35:11 38.337
21 *35:9 *35:8 8.76175
22 *35:9 *35:10 8.76175
23 *35:3 *35:9 1.02189
24 *1073:PAD *35 0.00540682
*END

*D_NET *36 0.0569039

*CONN
*P *36 I *C 1388 1949.29 *L 0
*I *1072:PAD B *C 1388 1949.29 *L 0 *D PADDI
*I *987:B0 I *C 1393.1 1510.025 *L 0.000211 *D AOI22XL

*CAP
1 *1072:PAD 0.0020781
2 *987:B0 2.2655e-05
3 *36:3 1.97956e-05
4 *36:4 1.97956e-05
5 *36:9 0.00262754
6 *36:10 1.7816e-05
7 *36:11 0.000352142
8 *36:12 0.000352142
9 *36:13 1.7816e-05
10 *36:14 1.62764e-05
11 *36:15 2.7054e-05
12 *36:16 0.0126014
13 *36:17 0.0144145
14 *36:18 0.00183945
15 *36:19 0.00127308
16 *36:20 0.0016096
17 *36:21 0.000442542
18 *36:22 7.69829e-05
19 *36:23 0.00926478
20 *36:24 0.00924785
21 *36:25 0.000582651

*RES
1 *36:9 *36:25 0.814181
2 *1072:PAD *36:9 3.07549
3 *36:24 *36:25 0.0811476
4 *36:23 *36:24 33.2813
5 *36:22 *36:23 0.113607
6 *36:21 *36:22 0.597787
7 *36:20 *36:21 2.08279
8 *36:19 *36:20 7.29247
9 *36:18 *36:19 0.597787
10 *36:17 *36:18 26.5867
11 *36:16 *36:17 177.269669
12 *36:8 *36:15 0.251558
13 *36:15 *36:16 2.16394
14 *36:7 *36:14 1.02246
15 *36:14 *36:15 2.16394
16 *36:6 *36:13 1.02246
17 *36:13 *36:14 8.76124
18 *36:4 *987:B0 8.76124
19 *36:12 *36:13 8.76124
20 *36:4 *36:3 0.733033
21 *36:11 *36:12 24.8853
22 *36:10 *36:3 8.76124
23 *36:10 *36:11 8.76124
24 *36:5 *36:10 1.02246
25 *1072:PAD *36 0.00540984
*END

*D_NET *37 0.152218

*CONN
*P *37 I *C 1326 1949.29 *L 0
*I *1071:PAD B *C 1326 1949.29 *L 0 *D PADDI
*I *997:A0 I *C 1325.78 646.595 *L 0.000211 *D AOI22XL

*CAP
1 *1071:PAD 0.00258301
2 *997:A0 2.26778e-05
3 *37:8 1.77643e-05
4 *37:9 1.77643e-05
5 *37:10 0.000157233
6 *37:11 0.000157233
7 *37:12 1.77643e-05
8 *37:13 1.62525e-05
9 *37:14 2.72134e-05
10 *37:15 0.0121803
11 *37:16 0.0243345
12 *37:17 0.024336
13 *37:18 0.0243503
14 *37:19 0.02476988
15 *37:20 0.013256
16 *37:21 0.000681091
17 *37:22 0.00197146
18 *37:23 0.00203534
19 *37:24 0.000957383
20 *37:25 0.000968722
21 *37:26 9.63808e-05
22 *37:27 7.93725e-05
23 *37:28 0.00261627
24 *37:29 0.00828422
25 *37:30 0.00828422

*RES
1 *1071:PAD *37:28 3.82262
2 *37:27 *37:28 0.0811023
3 *37:26 *37:27 0.197349
4 *37:26 *37:30 0.116247
5 *37:29 *37:30 29.9646
6 *37:25 *37:29 0.113543
7 *37:24 *37:25 3.06567
8 *37:23 *37:24 0.597453
9 *37:22 *37:23 11.3624
10 *37:21 *37:22 0.597453
11 *37:20 *37:21 9.70253
12 *37:19 *37:20 177.170593
13 *37:18 *37:19 177.170593
14 *37:17 *37:18 177.170593
15 *37:16 *37:17 177.170593
16 *37:15 *37:16 177.170593
17 *37:7 *37:14 0.251417
18 *37:14 *37:15 2.16543
19 *37:6 *37:13 1.02189
20 *37:13 *37:14 2.16543
21 *37:5 *37:12 1.02189
22 *37:12 *37:13 8.76175
23 *37:11 *37:12 8.76175
24 *37:10 *37:11 10.7623
25 *37:4 *37:9 1.02189
26 *37:9 *37:10 8.76175
27 *37:8 *997:A0 8.76175
28 *37:8 *37:9 8.76175
29 *37:3 *37:8 1.02189
30 *1071:PAD *37 0.00540682
*END

*D_NET *38 0.104445

*CONN
*P *38 I *C 1264 1949.29 *L 0
*I *1070:PAD B *C 1264 1949.29 *L 0 *D PADDI
*I *973:B0 I *C 1204.5 1079.105 *L 0.000211 *D AOI22XL

*CAP
1 *1070:PAD 0.00262761
2 *973:B0 2.26778e-05
3 *38:3 1.81423e-05
4 *38:4 1.81423e-05
5 *38:9 1.77643e-05
6 *38:10 1.81423e-05
7 *38:11 1.81423e-05
8 *38:12 1.77643e-05
9 *38:13 1.62525e-05
10 *38:14 2.72134e-05
11 *38:15 0.0121818
12 *38:16 0.0243503
13 *38:17 0.02476988
14 *38:18 0.0148272
15 *38:19 0.00225229
16 *38:20 0.00182632
17 *38:21 0.0018902
18 *38:22 0.00844523
19 *38:23 0.00843956
20 *38:24 0.00266087

*RES
1 *38:24 *1070:PAD 3.88882
2 *38:23 *38:24 0.0812994
3 *38:22 *38:23 30.593
4 *38:21 *38:22 0.596196
5 *38:20 *38:21 10.4036
6 *38:19 *38:20 0.596196
7 *38:18 *38:19 32.6824
8 *38:17 *38:18 177.601303
9 *38:16 *38:17 177.601303
10 *38:15 *38:16 177.601303
11 *38:8 *38:14 0.249318
12 *38:14 *38:15 2.16527
13 *38:7 *38:13 1.02166
14 *38:13 *38:14 2.16527
15 *38:6 *38:12 1.02166
16 *38:12 *38:13 8.76137
17 *38:4 *973:B0 8.76137
18 *38:11 *38:12 8.76137
19 *38:4 *38:3 0.677495
20 *38:10 *38:11 0.672075
21 *38:9 *38:3 8.76137
22 *38:9 *38:10 8.76137
23 *38:5 *38:9 1.02166
24 *1070:PAD *38 0.00541996
*END

*D_NET *39 0.0978078

*CONN
*P *39 I *C 1202 1949.29 *L 0
*I *1069:PAD B *C 1202 1949.29 *L 0 *D PADDI
*I *966:B0 I *C 1203.9 1019.255 *L 0.000211 *D AOI22XL

*CAP
1 *1069:PAD 0.00258284
2 *966:B0 2.28795e-05
3 *39:3 0.0208250963
4 *39:4 0.0105729
5 *39:5 0.0142803
6 *39:6 0.0205204
7 *39:10 0.00828396
8 *39:11 0.00828396
9 *39:12 0.000772818
10 *39:13 0.00089802
11 *39:14 0.000909459
12 *39:15 9.62845e-05
13 *39:16 7.94426e-05
14 *39:17 0.00261621
15 *39:18 1.84307e-05
16 *39:19 1.62063e-05
17 *39:20 2.73283e-05
18 *39:21 2.6375e-05
19 *39:22 0.000709264
20 *39:23 0.00104388
21 *39:24 6.48252e-05
22 *39:25 6.48252e-05
23 *39:26 1.84307e-05
24 *39:27 0.00402997
25 *39:28 0.00104388

*RES
1 *39:17 *1069:PAD 3.82334
2 *39:16 *39:17 0.0801725
3 *39:15 *39:16 0.197142
4 *39:4 *966:B0 8.76079
5 *39:11 *39:15 0.116006
6 *39:5 *39:27 307.528
7 *39:6 *39:5 786.679
8 *39:3 *39:6 787.552
9 *39:4 *39:3 788.768
10 *39:10 *39:11 29.9656
11 *39:28 *39:27 8.76079
12 *39:10 *39:14 0.114809
13 *39:23 *39:28 74.5642
14 *39:13 *39:14 2.85478
15 *39:24 *39:23 8.76079
16 *39:12 *39:13 0.59663
17 *39:24 *39:25 4.00953
18 *39:12 *39:22 4.00766
19 *39:26 *39:25 8.76079
20 *39:9 *39:21 0.253484
21 *39:21 *39:22 0.59663
22 *39:18 *39:26 0.703424
23 *39:8 *39:20 0.25347
24 *39:20 *39:21 2.16491
25 *39:19 *39:18 8.76079
26 *39:19 *39:20 2.16491
27 *39:7 *39:19 1.0152
28 *1069:PAD *39 0.00653203
*END

*D_NET *40 0.120307

*CONN
*P *40 I *C 1140 1949.29 *L 0
*I *1068:PAD B *C 1140 1949.29 *L 0 *D PADDI
*I *974:B0 I *C 1139.7 952.565 *L 0.000211 *D AOI22XL

*CAP
1 *1068:PAD 0.00262755
2 *974:B0 2.1171e-05
3 *40:3 0.000294433
4 *40:4 0.000294433
5 *40:9 0.00201634
6 *40:10 0.00918467
7 *40:11 0.00917918
8 *40:12 0.00266088
9 *40:13 3.09723e-05
10 *40:14 1.84266e-05
11 *40:15 1.60743e-05
12 *40:16 2.70518e-05
13 *40:17 0.0121835
14 *40:18 0.0252723
15 *40:19 0.02569332
16 *40:20 0.0206676
17 *40:21 0.00808966
18 *40:22 0.00195283
19 *40:23 2.27392e-05
20 *40:24 1.80345e-05
21 *40:25 1.80345e-05
22 *40:26 1.84266e-05

*RES
1 *974:B0 *40:13 1.93564
2 *40:12 *1068:PAD 3.89021
3 *40:13 *40:23 0.600157
4 *40:11 *40:12 0.0811023
5 *40:4 *40:23 8.76175
6 *40:10 *40:11 33.2817
7 *40:4 *40:3 20.2593
8 *40:9 *40:10 0.597453
9 *40:24 *40:3 8.76175
10 *40:7 *40:24 1.02189
11 *40:9 *40:22 11.2516
12 *40:25 *40:24 8.76175
13 *40:8 *40:25 1.02189
14 *40:21 *40:22 0.597453
15 *40:26 *40:25 8.76175
16 *40:20 *40:21 117.585
17 *40:19 *40:20 177.170593
18 *40:18 *40:19 177.170593
19 *40:17 *40:18 177.170593
20 *40:14 *40:26 0.708293
21 *40:6 *40:16 0.251417
22 *40:16 *40:17 2.16543
23 *40:15 *40:14 8.76175
24 *40:15 *40:16 2.16543
25 *40:5 *40:15 1.02189
26 *1068:PAD *40 0.00540682
*END

*D_NET *41 0.108735

*CONN
*P *41 I *C 1078 1949.29 *L 0
*I *1067:PAD B *C 1078 1949.29 *L 0 *D PADDI
*I *967:B0 I *C 1080.5 891.005 *L 0.000211 *D AOI22XL

*CAP
1 *1067:PAD 0.00262738
2 *967:B0 1.00198e-05
3 *41:3 0.000416135
4 *41:4 0.000397661
5 *41:8 2.59889e-05
6 *41:9 2.6302e-05
7 *41:10 0.000127126
8 *41:11 0.00917502
9 *41:12 0.00916907
10 *41:13 0.00266089
11 *41:14 0.00162008
12 *41:15 1.81609e-05
13 *41:16 1.81609e-05
14 *41:17 1.78478e-05
15 *41:18 1.62822e-05
16 *41:19 2.59889e-05
17 *41:20 0.0102897
18 *41:21 0.02052026
19 *41:22 0.020514
20 *41:23 0.0198295
21 *41:24 0.00958238
22 *41:25 0.00162008
23 *41:26 2.66151e-05

*RES
1 *967:B0 *41:26 0.599238
2 *41:4 *41:26 8.76079
3 *41:4 *41:3 27.5844
4 *41:20 *41:3 2.15936
5 *41:23 *41:24 733.948
6 *41:22 *41:23 786.651
7 *41:21 *41:22 786.651
8 *41:20 *41:21 786.651
9 *41:25 *41:24 8.76079
10 *41:14 *41:25 116.065
11 *41:15 *41:14 8.76079
12 *41:15 *41:16 0.668221
13 *41:17 *41:16 8.76079
14 *41:6 *41:17 1.01514
15 *41:13 *1067:PAD 3.88926
16 *41:18 *41:17 8.76079
17 *41:7 *41:18 1.01514
18 *41:12 *41:13 0.0801725
19 *41:19 *41:18 2.16491
20 *41:11 *41:12 33.2453
21 *41:8 *41:19 0.161382
22 *41:10 *41:11 0.59663
23 *41:9 *41:8 2.16491
24 *41:9 *41:10 0.59663
25 *41:5 *41:9 0.25344
26 *1067:PAD *41 0.00653203
*END

*D_NET *42 0.189263

*CONN
*P *42 I *C 1016 1949.29 *L 0
*I *1066:PAD B *C 1016 1949.29 *L 0 *D PADDI
*I *970:B0 I *C 1012.9 335.255 *L 0.000211 *D AOI22XL

*CAP
1 *1066:PAD 0.0026276
2 *970:B0 2.27205e-05
3 *42:8 0.00919621
4 *42:9 0.00917907
5 *42:10 0.00266069
6 *42:11 0.00180807
7 *42:12 7.69307e-05
8 *42:13 1.79372e-05
9 *42:14 1.79372e-05
10 *42:15 0.000294569
11 *42:16 0.000294569
12 *42:17 1.79372e-05
13 *42:18 1.63428e-05
14 *42:19 2.71051e-05
15 *42:20 0.0121802
16 *42:21 0.0243344
17 *42:22 0.0243372
18 *42:23 0.0251906
19 *42:24 0.02612256
20 *42:25 0.0256972
21 *42:26 0.0179902
22 *42:27 0.00540827
23 *42:28 0.00174429

*RES
1 *42:10 *1066:PAD 3.89021
2 *42:9 *42:10 0.0811023
3 *42:8 *42:9 33.2817
4 *42:8 *42:12 0.113543
5 *42:11 *42:12 0.597453
6 *42:11 *42:28 10.0378
7 *42:27 *42:28 0.597453
8 *42:26 *42:27 78.5367
9 *42:25 *42:26 177.170593
10 *42:24 *42:25 177.170593
11 *42:23 *42:24 177.170593
12 *42:22 *42:23 177.170593
13 *42:21 *42:22 177.170593
14 *42:20 *42:21 177.170593
15 *42:7 *42:19 0.251417
16 *42:19 *42:20 2.16543
17 *42:6 *42:18 1.02189
18 *42:18 *42:19 2.16543
19 *42:5 *42:17 1.02189
20 *42:17 *42:18 8.76175
21 *42:16 *42:17 8.76175
22 *42:15 *42:16 20.1782
23 *42:4 *42:14 1.02189
24 *42:14 *42:15 8.76175
25 *42:13 *970:B0 8.76175
26 *42:13 *42:14 8.76175
27 *42:3 *42:13 1.02189
28 *1066:PAD *42 0.00540682
*END

*D_NET *43 0.192128

*CONN
*P *43 I *C 954 1949.29 *L 0
*I *1065:PAD B *C 954 1949.29 *L 0 *D PADDI
*I *998:A0 I *C 950.78 333.425 *L 0.000211 *D AOI22XL

*CAP
1 *1065:PAD 0.00258306
2 *998:A0 2.26787e-05
3 *43:3 0.00738979
4 *43:4 0.00740709
5 *43:9 0.00261612
6 *43:10 0.00176394
7 *43:11 7.68769e-05
8 *43:12 0.000215255
9 *43:13 0.000215255
10 *43:14 1.80661e-05
11 *43:15 1.80661e-05
12 *43:16 1.80661e-05
13 *43:17 1.80661e-05
14 *43:18 1.61442e-05
15 *43:19 2.72913e-05
16 *43:20 0.0121804
17 *43:21 0.0243342
18 *43:22 0.0243373
19 *43:23 0.02519064
20 *43:24 0.0251891
21 *43:25 0.024764
22 *43:26 0.0181775
23 *43:27 0.00559549
24 *43:28 0.00170013
25 *43:3 *44:29 0.0038926
26 *43:4 *44:28 0.0038926
27 *43:3 *44:27 2.772e-05
28 *43:4 *44:26 2.772e-05
29 *43:3 *44:25 0.00020638
30 *43:4 *44:24 0.000206379854

*RES
1 *43:9 *1065:PAD 3.82262
2 *43:3 *43:9 0.0811023
3 *43:4 *43:3 33.3303
4 *43:4 *43:11 0.113543
5 *43:10 *43:11 0.597453
6 *43:10 *43:28 9.78093
7 *43:27 *43:28 0.597453
8 *43:26 *43:27 81.2645
9 *43:25 *43:26 177.170593
10 *43:24 *43:25 177.170593
11 *43:23 *43:24 177.170593
12 *43:22 *43:23 177.170593
13 *43:21 *43:22 177.170593
14 *43:20 *43:21 177.170593
15 *43:8 *43:19 0.251417
16 *43:19 *43:20 2.16543
17 *43:7 *43:18 1.02189
18 *43:18 *43:19 2.16543
19 *43:6 *43:17 1.02189
20 *43:17 *43:18 8.76175
21 *43:12 *998:A0 8.76175
22 *43:16 *43:17 8.76175
23 *43:12 *43:13 13.5279
24 *43:15 *43:16 0.673149
25 *43:14 *43:13 8.76175
26 *43:14 *43:15 8.76175
27 *43:5 *43:14 1.02189
28 *1065:PAD *43 0.00540682
*END

*D_NET *44 0.151633

*CONN
*P *44 I *C 892 1949.29 *L 0
*I *1064:PAD B *C 892 1949.29 *L 0 *D PADDI
*I *969:A0 I *C 891.98 708.155 *L 0.000211 *D AOI22XL

*CAP
1 *1064:PAD 0.00258306
2 *969:A0 2.26787e-05
3 *44:3 2.65225e-05
4 *44:4 2.65225e-05
5 *44:7 1.88348e-05
6 *44:8 1.84505e-05
7 *44:9 1.61442e-05
8 *44:10 2.72913e-05
9 *44:11 0.0121835
10 *44:12 0.02519064
11 *44:13 0.0251891
12 *44:14 0.024764
13 *44:15 0.0215186
14 *44:16 0.00893656
15 *44:17 0.0019273
16 *44:18 1.88348e-05
17 *44:19 0.000621165
18 *44:20 0.000621165
19 *44:21 1.84505e-05
20 *44:22 0.00199111
21 *44:23 7.68769e-05
22 *44:24 0.000775304
23 *44:25 0.000775304
24 *44:26 8.91772e-05
25 *44:27 8.91772e-05
26 *44:28 0.00662717
27 *44:29 0.00660988
28 *44:30 0.00261612
29 *44:29 *43:3 0.0038926
30 *44:28 *43:4 0.0038926
31 *44:27 *43:3 2.772e-05
32 *44:26 *43:4 2.772e-05
33 *44:25 *43:3 0.00020638
34 *44:24 *43:4 0.000206379854

*RES
1 *1064:PAD *44:30 3.82262
2 *44:29 *44:30 0.0811023
3 *44:28 *44:29 30.2484
4 *44:25 *44:28 0.116247
5 *44:24 *44:25 2.81966
6 *44:4 *969:A0 8.76175
7 *44:24 *44:27 0.113543
8 *44:4 *44:3 1.3517
9 *44:26 *44:27 0.210866
10 *44:7 *44:3 8.76175
11 *44:23 *44:26 0.113543
12 *44:7 *44:18 0.708293
13 *44:22 *44:23 0.597453
14 *44:19 *44:18 8.76175
15 *44:17 *44:22 11.1029
16 *44:19 *44:20 44.39
17 *44:16 *44:17 0.597453
18 *44:21 *44:20 8.76175
19 *44:15 *44:16 129.918
20 *44:14 *44:15 177.170593
21 *44:13 *44:14 177.170593
22 *44:12 *44:13 177.170593
23 *44:11 *44:12 177.170593
24 *44:8 *44:21 0.708293
25 *44:6 *44:10 0.251417
26 *44:10 *44:11 2.16543
27 *44:9 *44:8 8.76175
28 *44:9 *44:10 2.16543
29 *44:5 *44:9 1.02189
30 *1064:PAD *44 0.00540682
*END

*D_NET *45 0.310299

*CONN
*P *45 I *C 830 1949.29 *L 0
*I *1063:PAD B *C 830 1949.29 *L 0 *D PADDI
*I *988:A0 I *C 1780.98 1446.875 *L 0.000211 *D AOI22XL

*CAP
1 *1063:PAD 0.00258297
2 *988:A0 2.27145e-05
3 *45:3 0.000470747
4 *45:4 0.000470747
5 *45:5 0.00118904
6 *45:6 0.00118904
7 *45:7 3.80121e-05
8 *45:8 3.68532e-05
9 *45:9 0.00460549
10 *45:10 0.0118785
11 *45:11 0.0144346
12 *45:12 0.0148256
13 *45:13 0.0111494
14 *45:14 0.00355367
15 *45:17 0.000641802
16 *45:18 0.000653159
17 *45:19 0.000101288
18 *45:20 8.41365e-05
19 *45:21 0.00261634
20 *45:22 0.00830379
21 *45:23 0.00830379
22 *45:24 0.000107083
23 *45:25 1.87743e-05
24 *45:26 1.78471e-05
25 *45:27 1.83107e-05
26 *45:28 0.000107083
27 *45:29 3.47671e-05
28 *45:30 1.87743e-05
29 *45:31 1.83107e-05
30 *45:32 1.62247e-05
31 *45:33 2.59595e-05
32 *45:34 2.59595e-05
33 *45:35 0.0112901
34 *45:36 0.0151897675
35 *45:37 0.0039273
36 *45:38 4.03299e-05
37 *45:38 *50:8 2.555e-05
38 *45:29 *50:9 2.555e-05
39 *45:9 *50:8 0.00917324
40 *45:10 *50:9 0.00917324
41 *45:10 *50:9 0.0141537
42 *45:11 *50:10 0.0141537
43 *45:28 *50:8 6.339e-05
44 *45:24 *50:9 6.339e-05
45 *45:5 *50:11 0.00039488
46 *45:6 *50:12 0.00039488
47 *45:37 *50:13 0.00060958
48 *45:36 *50:14 0.00060958
49 *45:37 *50:14 0.0005768
50 *45:36 *50:11 0.0005768
51 *45:36 *50:14 0.00283429
52 *45:35 *50:11 0.00283429
53 *45:36 *50:11 0.0005768
54 *45:35 *50:12 0.0005768
55 *45:7 *50:11 5.84e-06
56 *45:8 *50:12 5.84e-06
57 *45:11 *50:10 0.014195
58 *45:12 *50:15 0.014195
59 *45:12 *50:15 0.0140289
60 *45:13 *50:5 0.0140289
61 *45:13 *50:5 0.00689161
62 *45:14 *50:6 0.00689156966
63 *45:9 *51:37 2.555e-05
64 *45:10 *51:30 2.555e-05
65 *45:9 *51:29 0.00485626
66 *45:10 *51:16 0.00485626
67 *45:10 *51:16 0.00798022
68 *45:11 *51:15 0.00798022
69 *45:11 *51:15 0.00802806
70 *45:12 *51:14 0.00802806
71 *45:12 *51:14 0.00782787
72 *45:13 *51:13 0.00782787
73 *45:13 *51:13 0.00389759
74 *45:14 *51:27 0.00389759018

*RES
1 *1063:PAD *45:21 3.82461
2 *45:20 *45:21 0.0805786
3 *45:19 *45:20 0.215836
4 *45:19 *45:23 0.115112
5 *45:22 *45:23 30.0385
6 *45:18 *45:22 0.115112
7 *45:17 *45:18 1.95115
8 *45:14 *45:17 0.595706
9 *45:10 *45:9 52.2782
10 *45:11 *45:10 80.8175
11 *45:12 *45:11 80.8175
12 *45:13 *45:12 80.8175
13 *45:14 *45:13 39.236
14 *45:24 *45:9 0.106479
15 *45:24 *45:28 0.661896
16 *45:28 *45:29 0.106479
17 *45:29 *45:38 0.146768
18 *45:37 *45:38 0.595706
19 *45:36 *45:37 65.5363
20 *45:35 *45:36 188.59996
21 *45:35 *45:5 0.279147
22 *45:6 *45:5 19.2007
23 *45:7 *45:6 0.279147
24 *45:8 *45:7 0.319437
25 *45:34 *45:8 2.16411
26 *45:4 *988:A0 8.76004
27 *45:33 *45:34 0.166913
28 *45:4 *45:3 33.4977
29 *45:16 *45:32 1.01299
30 *45:32 *45:33 2.16411
31 *45:30 *45:3 8.76004
32 *45:31 *45:32 8.76004
33 *45:25 *45:30 0.702185
34 *45:27 *45:31 0.702185
35 *45:26 *45:25 8.76004
36 *45:26 *45:27 8.76004
37 *45:15 *45:26 1.01299
38 *1063:PAD *45 0.00575561
*END

*D_NET *46 0.138722

*CONN
*P *46 I *C 768 1949.29 *L 0
*I *1062:PAD B *C 768 1949.29 *L 0 *D PADDI
*I *972:A0 I *C 768.38 583.085 *L 0.000211 *D AOI22XL

*CAP
1 *1062:PAD 0.00262745
2 *972:A0 1.9863e-05
3 *46:3 0.000395631
4 *46:4 0.000377396
5 *46:5 0.02133967
6 *46:6 0.011107
7 *46:10 0.000135459
8 *46:11 0.00901681
9 *46:12 0.00901095
10 *46:13 0.00266066
11 *46:14 1.82349e-05
12 *46:15 1.62811e-05
13 *46:16 2.70267e-05
14 *46:17 2.63754e-05
15 *46:18 7.16369e-05
16 *46:19 0.00148354
17 *46:20 0.000231518
18 *46:21 0.000231518
19 *46:22 1.82349e-05
20 *46:23 3.25622e-05
21 *46:24 0.0205191
22 *46:25 0.0205175
23 *46:26 0.0205171
24 *46:27 0.0135433
25 *46:28 0.00329367
26 *46:29 0.00148354

*RES
1 *46:23 *972:A0 1.19846
2 *46:4 *46:23 8.76079
3 *46:4 *46:3 26.9118
4 *46:3 *46:6 2.15936
5 *46:27 *46:28 250.91
6 *46:26 *46:27 786.651
7 *46:25 *46:26 786.651
8 *46:24 *46:25 786.651
9 *46:5 *46:24 786.651
10 *46:6 *46:5 786.676
11 *46:13 *1062:PAD 3.88926
12 *46:29 *46:28 8.76079
13 *46:12 *46:13 0.0801725
14 *46:19 *46:29 106.214
15 *46:11 *46:12 32.4209
16 *46:20 *46:19 8.76079
17 *46:10 *46:11 0.59663
18 *46:20 *46:21 16.118
19 *46:10 *46:18 0.291119
20 *46:22 *46:21 8.76079
21 *46:9 *46:17 0.262997
22 *46:17 *46:18 0.59663
23 *46:14 *46:22 0.701341
24 *46:8 *46:16 0.262997
25 *46:16 *46:17 2.16491
26 *46:15 *46:14 8.76079
27 *46:15 *46:16 2.16491
28 *46:7 *46:15 1.01219
29 *1062:PAD *46 0.00653203
*END

*D_NET *47 0.317867

*CONN
*P *47 I *C 706 1949.29 *L 0
*I *1061:PAD B *C 706 1949.29 *L 0 *D PADDI
*I *994:A0 I *C 1781.1801 1327.175 *L 0.000211 *D AOI22XL

*CAP
1 *1061:PAD 0.00258319
2 *994:A0 1.99374e-05
3 *47:3 0.000428653
4 *47:4 0.000428653
5 *47:5 0.02840424
6 *47:6 0.0148273
7 *47:7 0.0136033
8 *47:8 0.00473859
9 *47:9 0.0120474
10 *47:10 0.0144936
11 *47:11 0.0149526
12 *47:12 0.0100666
13 *47:13 0.00998342
14 *47:14 0.00779031
15 *47:18 0.0111038
16 *47:19 0.0110982
17 *47:20 0.00261656
18 *47:21 3.85745e-05
19 *47:22 1.82037e-05
20 *47:23 1.60366e-05
21 *47:24 3.85745e-05
22 *47:25 3.25066e-05
23 *47:26 1.82037e-05
24 *47:27 1.82037e-05
25 *47:28 1.82037e-05
26 *47:8 *49:9 0.00522343
27 *47:9 *49:10 0.00522343
28 *47:9 *49:10 0.00798022
29 *47:10 *49:11 0.00798022
30 *47:10 *49:11 0.00802806
31 *47:11 *49:12 0.00802806
32 *47:11 *49:12 0.00782787
33 *47:12 *49:13 0.00782787
34 *47:12 *49:13 0.0025529
35 *47:13 *49:14 0.0025529
36 *47:13 *49:13 0.00227457
37 *47:14 *49:14 0.00227457
38 *47:13 *49:14 0.00573271
39 *47:14 *49:15 0.00573270976
40 *47:8 *50:8 0.00522343
41 *47:9 *50:9 0.00522343
42 *47:9 *50:9 0.00798022
43 *47:10 *50:10 0.00798022
44 *47:10 *50:10 0.00802806
45 *47:11 *50:15 0.00802806
46 *47:11 *50:15 0.00782787
47 *47:12 *50:5 0.00782787
48 *47:12 *50:5 0.0025529
49 *47:13 *50:6 0.0025529
50 *47:13 *50:5 0.00449772
51 *47:14 *50:6 0.00449772
52 *47:13 *50:6 0.00351163
53 *47:14 *50:7 0.00351163003

*RES
1 *47:20 *1061:PAD 3.82446
2 *47:19 *47:20 0.0803941
3 *47:25 *994:A0 1.22601
4 *47:18 *47:19 32.0055
5 *47:4 *47:25 8.76009
6 *47:14 *47:18 0.597214
7 *47:4 *47:3 35.2901
8 *47:9 *47:8 52.7156
9 *47:10 *47:9 80.8191
10 *47:11 *47:10 80.8191
11 *47:12 *47:11 80.8191
12 *47:13 *47:12 25.7003
13 *47:14 *47:13 80.8191
14 *47:26 *47:3 8.76009
15 *47:16 *47:26 1.01354
16 *47:7 *47:8 0.597214
17 *47:27 *47:26 8.76009
18 *47:17 *47:27 1.01354
19 *47:5 *47:7 187.387
20 *47:6 *47:5 188.168198
21 *47:28 *47:27 8.76009
22 *47:21 *47:6 2.1649
23 *47:22 *47:28 0.703449
24 *47:21 *47:24 0.335933
25 *47:23 *47:22 8.76009
26 *47:23 *47:24 2.1649
27 *47:15 *47:23 1.01354
28 *1061:PAD *47 0.00574244
*END

*D_NET *48 0.266683

*CONN
*P *48 I *C 644 1949.29 *L 0
*I *1060:PAD B *C 644 1949.29 *L 0 *D PADDI
*I *989:A0 I *C 1781.58 1267.085 *L 0.000211 *D AOI22XL

*CAP
1 *1060:PAD 0.00258291
2 *989:A0 2.27584e-05
3 *48:3 0.000878408
4 *48:4 0.000878408
5 *48:5 0.0105025
6 *48:6 0.0105198
7 *48:7 0.000116849
8 *48:8 0.00010564
9 *48:9 0.000493892
10 *48:10 0.000493892
11 *48:11 0.0073092
12 *48:12 0.0182462
13 *48:13 0.0217363
14 *48:14 0.0200393
15 *48:15 0.010031
16 *48:16 0.00235533
17 *48:17 0.0123633
18 *48:18 0.02226081
19 *48:19 0.0149584
20 *48:20 0.0152763
21 *48:21 0.0118853
22 *48:25 0.0026162
23 *48:26 1.80029e-05
24 *48:27 1.86823e-05
25 *48:28 1.86823e-05
26 *48:29 1.80029e-05
27 *48:30 1.63046e-05
28 *48:31 0.000137909
29 *48:32 0.000137909
30 *48:11 *49:9 0.00437182
31 *48:12 *49:10 0.00437182
32 *48:12 *49:10 0.00656743
33 *48:13 *49:11 0.00656743
34 *48:14 *49:36 0.00017043
35 *48:15 *49:35 0.00017043
36 *48:16 *49:3 0.00063294
37 *48:17 *49:4 0.00063294
38 *48:16 *49:4 0.0001518
39 *48:17 *49:5 0.0001518
40 *48:17 *49:4 0.00325929
41 *48:14 *49:5 0.00325929
42 *48:17 *49:5 0.0001518
43 *48:14 *49:6 0.0001518
44 *48:14 *49:5 0.00325917
45 *48:15 *49:6 0.00325917
46 *48:13 *49:11 0.00661651
47 *48:18 *49:12 0.00661651
48 *48:18 *49:12 0.00641147
49 *48:19 *49:13 0.00641147
50 *48:19 *49:13 0.00213381
51 *48:20 *49:14 0.00213381
52 *48:20 *49:13 0.00184601
53 *48:21 *49:14 0.00184601
54 *48:20 *49:14 0.00474989
55 *48:21 *49:15 0.00474988952

*RES
1 *1060:PAD *48:25 3.82403
2 *48:5 *48:25 0.0803247
3 *48:6 *48:5 30.248
4 *48:9 *48:6 0.11475
5 *48:10 *48:9 1.27659
6 *48:10 *48:7 0.11475
7 *48:8 *48:7 0.212287
8 *48:21 *48:8 0.596697
9 *48:12 *48:11 53.9524
10 *48:13 *48:12 80.821
11 *48:18 *48:13 80.821
12 *48:19 *48:18 80.821
13 *48:20 *48:19 26.0654
14 *48:21 *48:20 80.821
15 *48:16 *48:11 0.596697
16 *48:17 *48:16 43.8544
17 *48:14 *48:17 188.0056
18 *48:15 *48:14 188.0056
19 *48:32 *48:15 2.1659
20 *48:31 *48:32 1.50609
21 *48:24 *48:30 1.01266
22 *48:30 *48:31 2.1659
23 *48:23 *48:29 1.01266
24 *48:29 *48:30 8.76113
25 *48:3 *48:29 8.76113
26 *48:4 *48:3 62.6991
27 *48:28 *48:4 8.76113
28 *48:27 *48:28 0.699972
29 *48:26 *989:A0 8.76113
30 *48:26 *48:27 8.76113
31 *48:22 *48:26 1.01266
32 *1060:PAD *48 0.00573748
*END

*D_NET *49 0.327116

*CONN
*P *49 I *C 582 1949.29 *L 0
*I *1059:PAD B *C 582 1949.29 *L 0 *D PADDI
*I *990:A0 I *C 1781.58 1200.635 *L 0.000211 *D AOI22XL

*CAP
1 *1059:PAD 0.0025831
2 *990:A0 2.25619e-05
3 *49:3 0.00147973
4 *49:4 0.00933103
5 *49:5 0.01572974
6 *49:6 0.00787963
7 *49:7 0.0037028
8 *49:8 0.0037016
9 *49:9 0.00501619
10 *49:10 0.0125173
11 *49:11 0.0148693
12 *49:12 0.0153555
13 *49:13 0.0124275
14 *49:14 0.0137208
15 *49:15 0.00938672
16 *49:20 0.000563088
17 *49:21 0.000574369
18 *49:22 9.64882e-05
19 *49:23 7.92067e-05
20 *49:24 0.00261622
21 *49:25 0.00828407
22 *49:26 0.00828407
23 *49:27 1.80015e-05
24 *49:28 1.87216e-05
25 *49:29 1.87216e-05
26 *49:30 1.80015e-05
27 *49:31 1.80015e-05
28 *49:32 1.63214e-05
29 *49:33 7.84867e-05
30 *49:34 7.84867e-05
31 *49:35 0.000677098
32 *49:36 0.000677098
33 *49:9 *48:11 0.00437182
34 *49:10 *48:12 0.00437182
35 *49:10 *48:12 0.00656743
36 *49:11 *48:13 0.00656743
37 *49:36 *48:14 0.00017043
38 *49:35 *48:15 0.00017043
39 *49:3 *48:16 0.00063294
40 *49:4 *48:17 0.00063294
41 *49:4 *48:16 0.0001518
42 *49:5 *48:17 0.0001518
43 *49:4 *48:17 0.00325929
44 *49:5 *48:14 0.00325929
45 *49:5 *48:17 0.0001518
46 *49:6 *48:14 0.0001518
47 *49:5 *48:14 0.00325917
48 *49:6 *48:15 0.00325917
49 *49:11 *48:13 0.00661651
50 *49:12 *48:18 0.00661651
51 *49:12 *48:18 0.00641147
52 *49:13 *48:19 0.00641147
53 *49:13 *48:19 0.00213381
54 *49:14 *48:20 0.00213381
55 *49:13 *48:20 0.00184601
56 *49:14 *48:21 0.00184601
57 *49:14 *48:20 0.00474989
58 *49:15 *48:21 0.00474988952
59 *49:9 *47:8 0.00522343
60 *49:10 *47:9 0.00522343
61 *49:10 *47:9 0.00798022
62 *49:11 *47:10 0.00798022
63 *49:11 *47:10 0.00802806
64 *49:12 *47:11 0.00802806
65 *49:12 *47:11 0.00782787
66 *49:13 *47:12 0.00782787
67 *49:13 *47:12 0.0025529
68 *49:14 *47:13 0.0025529
69 *49:13 *47:13 0.00227457
70 *49:14 *47:14 0.00227457
71 *49:14 *47:13 0.00573271
72 *49:15 *47:14 0.00573270976
73 *49:3 *50:13 0.00061542
74 *49:4 *50:14 0.00061542
75 *49:4 *50:14 0.00341109
76 *49:5 *50:11 0.00341109
77 *49:5 *50:11 0.00341096
78 *49:6 *50:12 0.00341096
79 *49:7 *50:33 0.00125816
80 *49:8 *50:32 0.00125815986

*RES
1 *1059:PAD *49:24 3.82403
2 *49:23 *49:24 0.0803247
3 *49:22 *49:23 0.197943
4 *49:22 *49:26 0.11475
5 *49:25 *49:26 29.9668
6 *49:21 *49:25 0.11475
7 *49:20 *49:21 1.66961
8 *49:15 *49:20 0.596697
9 *49:10 *49:9 53.6626
10 *49:11 *49:10 80.8238
11 *49:12 *49:11 80.8238
12 *49:13 *49:12 80.8238
13 *49:14 *49:13 48.6136
14 *49:15 *49:14 80.8238
15 *49:3 *49:9 0.596697
16 *49:4 *49:3 34.8523
17 *49:5 *49:4 188.0056
18 *49:6 *49:5 188.0056
19 *49:6 *49:36 0.278268
20 *49:35 *49:36 10.3762
21 *49:7 *49:35 0.278268
22 *49:8 *49:7 68.8354
23 *49:34 *49:8 2.1659
24 *49:33 *49:34 0.84054
25 *49:19 *49:32 1.01266
26 *49:32 *49:33 2.1659
27 *49:18 *49:31 1.01266
28 *49:31 *49:32 8.76113
29 *49:17 *49:30 1.01266
30 *49:30 *49:31 8.76113
31 *49:29 *49:30 8.76113
32 *49:28 *49:29 0.702841
33 *49:27 *990:A0 8.76113
34 *49:27 *49:28 8.76113
35 *49:16 *49:27 1.01553
36 *1059:PAD *49 0.00573748
*END

*D_NET *50 0.404557

*CONN
*P *50 I *C 520 1949.29 *L 0
*I *1058:PAD B *C 520 1949.29 *L 0 *D PADDI
*I *992:A0 I *C 1781.58 1139.075 *L 0.000211 *D AOI22XL

*CAP
1 *1058:PAD 0.000217642
2 *992:A0 2.24427e-05
3 *50:3 0.000836122
4 *50:4 0.000836122
5 *50:5 0.0140395
6 *50:6 0.0157454
7 *50:7 0.00947135
8 *50:8 0.00478108
9 *50:9 0.0120489
10 *50:10 0.0144343
11 *50:11 0.01710214
12 *50:12 0.00925188
13 *50:13 0.0014319
14 *50:14 0.00928346
15 *50:15 0.0148258
16 *50:20 0.00262763
17 *50:21 0.00891837
18 *50:22 0.00891263
19 *50:23 0.00244313
20 *50:24 1.80064e-05
21 *50:25 1.87893e-05
22 *50:26 1.87893e-05
23 *50:27 1.80064e-05
24 *50:28 1.80064e-05
25 *50:29 1.61796e-05
26 *50:30 2.60962e-05
27 *50:31 2.60962e-05
28 *50:32 0.00746142
29 *50:33 0.00746273
30 *50:8 *47:8 0.00522343
31 *50:9 *47:9 0.00522343
32 *50:9 *47:9 0.00798022
33 *50:10 *47:10 0.00798022
34 *50:10 *47:10 0.00802806
35 *50:15 *47:11 0.00802806
36 *50:15 *47:11 0.00782787
37 *50:5 *47:12 0.00782787
38 *50:5 *47:12 0.0025529
39 *50:6 *47:13 0.0025529
40 *50:5 *47:13 0.00449772
41 *50:6 *47:14 0.00449772
42 *50:6 *47:13 0.00351163
43 *50:7 *47:14 0.00351163003
44 *50:8 *45:38 2.555e-05
45 *50:9 *45:29 2.555e-05
46 *50:8 *45:9 0.00917324
47 *50:9 *45:10 0.00917324
48 *50:9 *45:10 0.0141537
49 *50:10 *45:11 0.0141537
50 *50:8 *45:28 6.339e-05
51 *50:9 *45:24 6.339e-05
52 *50:11 *45:5 0.00039488
53 *50:12 *45:6 0.00039488
54 *50:13 *45:37 0.00060958
55 *50:14 *45:36 0.00060958
56 *50:14 *45:37 0.0005768
57 *50:11 *45:36 0.0005768
58 *50:14 *45:36 0.00283429
59 *50:11 *45:35 0.00283429
60 *50:11 *45:36 0.0005768
61 *50:12 *45:35 0.0005768
62 *50:11 *45:7 5.84e-06
63 *50:12 *45:8 5.84e-06
64 *50:10 *45:11 0.014195
65 *50:15 *45:12 0.014195
66 *50:15 *45:12 0.0140289
67 *50:5 *45:13 0.0140289
68 *50:5 *45:13 0.00689161
69 *50:6 *45:14 0.00689156966
70 *50:13 *49:3 0.00061542
71 *50:14 *49:4 0.00061542
72 *50:14 *49:4 0.00341109
73 *50:11 *49:5 0.00341109
74 *50:11 *49:5 0.00341096
75 *50:12 *49:6 0.00341096
76 *50:33 *49:7 0.00125816
77 *50:32 *49:8 0.00125815986
78 *50:11 *23:5 0.00051006
79 *50:12 *23:6 0.000510060004
80 *50:5 *51:28 0.00258971
81 *50:6 *51:18 0.00258971
82 *50:6 *51:28 0.0007878
83 *50:7 *51:18 0.0007878
84 *50:6 *51:18 0.00538695
85 *50:7 *51:17 0.0053869499

*RES
1 *50:20 *50:23 3.56584
2 *1058:PAD *50:20 0.321299
3 *50:22 *50:23 0.0803247
4 *50:21 *50:22 32.061
5 *50:7 *50:21 0.596697
6 *50:9 *50:8 53.545
7 *50:10 *50:9 80.8238
8 *50:15 *50:10 80.8238
9 *50:5 *50:15 80.8238
10 *50:6 *50:5 70.984
11 *50:7 *50:6 80.8238
12 *50:13 *50:8 0.596697
13 *50:14 *50:13 33.8884
14 *50:11 *50:14 188.0056
15 *50:12 *50:11 188.0056
16 *50:3 *50:12 0.278268
17 *50:4 *50:3 10.4824
18 *50:4 *50:33 0.278268
19 *50:32 *50:33 120.57
20 *50:31 *50:32 2.1659
21 *50:30 *50:31 0.166387
22 *50:19 *50:29 1.01266
23 *50:29 *50:30 2.1659
24 *50:18 *50:28 1.01266
25 *50:28 *50:29 8.76113
26 *50:17 *50:27 1.01266
27 *50:27 *50:28 8.76113
28 *50:26 *50:27 8.76113
29 *50:25 *50:26 0.699972
30 *50:24 *992:A0 8.76113
31 *50:24 *50:25 8.76113
32 *50:16 *50:24 1.01266
33 *1058:PAD *50 0.00573748
*END

*D_NET *51 0.321656

*CONN
*P *51 I *C 458 1949.29 *L 0
*I *1057:PAD B *C 458 1949.29 *L 0 *D PADDI
*I *991:A0 I *C 1780.98 1080.9351 *L 0.000211 *D AOI22XL

*CAP
1 *1057:PAD 0.00262739
2 *991:A0 2.27907e-05
3 *51:3 3.63971e-05
4 *51:4 4.01388e-05
5 *51:5 3.33356e-05
6 *51:6 2.92537e-05
7 *51:7 7.78965e-05
8 *51:8 7.78965e-05
9 *51:9 0.0125655
10 *51:10 0.02229235
11 *51:11 0.0205395
12 *51:12 0.0100221
13 *51:13 0.0164158
14 *51:14 0.0218576
15 *51:15 0.0213607
16 *51:16 0.0185965
17 *51:17 0.0148235
18 *51:18 0.0182145
19 *51:23 0.00229063
20 *51:24 0.00888905
21 *51:25 0.00888326
22 *51:26 0.00266073
23 *51:27 0.0051694
24 *51:28 0.00561229
25 *51:29 0.0078468
26 *51:30 3.46963e-05
27 *51:31 0.000813321
28 *51:32 0.000813321
29 *51:33 1.80285e-05
30 *51:34 1.63277e-05
31 *51:35 2.72128e-05
32 *51:36 0.000816383
33 *51:37 4.01388e-05
34 *51:38 1.80285e-05
35 *51:37 *45:9 2.555e-05
36 *51:30 *45:10 2.555e-05
37 *51:29 *45:9 0.00485626
38 *51:16 *45:10 0.00485626
39 *51:16 *45:10 0.00798022
40 *51:15 *45:11 0.00798022
41 *51:15 *45:11 0.00802806
42 *51:14 *45:12 0.00802806
43 *51:14 *45:12 0.00782787
44 *51:13 *45:13 0.00782787
45 *51:13 *45:13 0.00389759
46 *51:27 *45:14 0.00389759018
47 *51:9 *53:30 0.00097718
48 *51:10 *53:29 0.00097718
49 *51:10 *53:30 0.00030359
50 *51:11 *53:29 0.00030359
51 *51:10 *53:29 0.00296186
52 *51:11 *53:28 0.00296186
53 *51:11 *53:29 0.00030359
54 *51:12 *53:28 0.00030359
55 *51:11 *53:28 0.00311063
56 *51:12 *53:27 0.00311063001
57 *51:28 *50:5 0.00258971
58 *51:18 *50:6 0.00258971
59 *51:28 *50:6 0.0007878
60 *51:18 *50:7 0.0007878
61 *51:18 *50:6 0.00538695
62 *51:17 *50:7 0.0053869499

*RES
1 *1057:PAD *51:26 3.8883
2 *51:25 *51:26 0.0801712
3 *51:24 *51:25 32.2059
4 *51:23 *51:24 0.595558
5 *51:38 *991:A0 8.76157
6 *51:22 *51:38 1.01646
7 *51:18 *51:28 41.4943
8 *51:17 *51:18 80.8613
9 *51:23 *51:17 12.7157
10 *51:3 *51:38 8.76157
11 *51:27 *51:28 0.105941
12 *51:4 *51:3 1.41731
13 *51:16 *51:29 51.9853
14 *51:15 *51:16 80.8183
15 *51:14 *51:15 80.8183
16 *51:13 *51:14 80.8183
17 *51:27 *51:13 39.3755
18 *51:4 *51:7 1.01646
19 *51:29 *51:30 0.105941
20 *51:8 *51:7 6.27912
21 *51:30 *51:37 0.146026
22 *51:5 *51:8 1.01646
23 *51:36 *51:37 0.595558
24 *51:6 *51:5 1.41731
25 *51:9 *51:36 12.3922
26 *51:10 *51:9 187.646469
27 *51:11 *51:10 187.646469
28 *51:12 *51:11 187.646469
29 *51:31 *51:6 8.76157
30 *51:21 *51:35 0.0544019
31 *51:35 *51:12 2.16462
32 *51:31 *51:32 57.4169
33 *51:20 *51:34 1.01359
34 *51:34 *51:35 2.16462
35 *51:33 *51:32 8.76157
36 *51:33 *51:34 8.76157
37 *51:19 *51:33 0.214744
38 *1057:PAD *51 0.00572652
*END

*D_NET *52 0.281317

*CONN
*P *52 I *C 396 1949.29 *L 0
*I *1056:PAD B *C 396 1949.29 *L 0 *D PADDI
*I *983:B0 I *C 1777.1 1019.255 *L 0.000211 *D AOI22XL

*CAP
1 *1056:PAD 0.00262767
2 *983:B0 2.28684e-05
3 *52:3 2.7706e-05
4 *52:4 2.7706e-05
5 *52:5 0.0202095
6 *52:6 0.0281172
7 *52:7 0.0288208
8 *52:8 0.0288208
9 *52:9 0.0285574
10 *52:10 0.0234903
11 *52:15 0.00620394
12 *52:16 0.00948072
13 *52:17 0.00947456
14 *52:18 0.00266065
15 *52:19 0.000225606
16 *52:20 0.000225606
17 *52:21 1.80309e-05
18 *52:22 1.80309e-05
19 *52:23 1.62718e-05
20 *52:24 2.72662e-05
21 *52:25 0.00129251
22 *52:26 1.80309e-05
23 *52:27 1.80309e-05
24 *52:28 0.00129382
25 *52:29 0.0121818
26 *52:30 0.0247775
27 *52:31 0.0251931
28 *52:32 0.015529
29 *52:33 0.0029597
30 *52:34 0.00898113

*RES
1 *1056:PAD *52:18 3.89017
2 *52:17 *52:18 0.0799154
3 *52:16 *52:17 34.355
4 *52:15 *52:16 0.596511
5 *52:10 *52:34 52.1876
6 *52:9 *52:10 81.6992
7 *52:8 *52:9 81.6992
8 *52:7 *52:8 81.6992
9 *52:6 *52:7 81.6992
10 *52:5 *52:6 81.6992
11 *52:15 *52:5 35.6423
12 *52:33 *52:34 0.596511
13 *52:32 *52:33 45.2949
14 *52:31 *52:32 187.047653
15 *52:30 *52:31 187.047653
16 *52:29 *52:30 187.047653
17 *52:20 *52:29 0.27685
18 *52:4 *983:B0 8.76215
19 *52:19 *52:20 3.12812
20 *52:4 *52:3 2.31184
21 *52:19 *52:28 0.27685
22 *52:26 *52:3 8.76215
23 *52:14 *52:26 1.01321
24 *52:25 *52:28 19.585
25 *52:27 *52:26 8.76215
26 *52:13 *52:24 0.262579
27 *52:24 *52:25 2.16628
28 *52:21 *52:27 0.667864
29 *52:12 *52:23 1.01321
30 *52:23 *52:24 2.16628
31 *52:22 *52:21 8.76215
32 *52:22 *52:23 8.76215
33 *52:11 *52:22 1.01321
34 *1056:PAD *52 0.00570824
*END

*D_NET *53 0.301877

*CONN
*P *53 I *C 80.71 1636 *L 0
*I *1055:PAD B *C 80.71 1636 *L 0 *D PADDI
*I *980:B0 I *C 1780.1 954.275 *L 0.000211 *D AOI22XL

*CAP
1 *1055:PAD 0.00194411
2 *980:B0 2.24727e-05
3 *53:3 6.74182e-05
4 *53:4 6.74182e-05
5 *53:5 0.0060152
6 *53:6 0.0060152
7 *53:7 4.27423e-05
8 *53:8 4.27423e-05
9 *53:9 0.0281513
10 *53:10 0.0280539
11 *53:11 0.0281174
12 *53:12 0.0288206
13 *53:13 0.0288206
14 *53:14 0.02887746
15 *53:15 0.0239991
16 *53:19 2.99636e-05
17 *53:20 0.00198157
18 *53:21 0.0142724
19 *53:22 3.5692e-05
20 *53:23 1.8507e-05
21 *53:24 1.8507e-05
22 *53:25 1.63037e-05
23 *53:26 2.73198e-05
24 *53:27 0.0102141
25 *53:28 0.0217082
26 *53:29 0.0157538
27 *53:30 0.00426012
28 *53:31 0.00916976
29 *53:30 *51:9 0.00097718
30 *53:29 *51:10 0.00097718
31 *53:30 *51:10 0.00030359
32 *53:29 *51:11 0.00030359
33 *53:29 *51:10 0.00296186
34 *53:28 *51:11 0.00296186
35 *53:29 *51:11 0.00030359
36 *53:28 *51:12 0.00030359
37 *53:28 *51:11 0.00311063
38 *53:27 *51:12 0.00311063001

*RES
1 *53:8 *980:B0 8.76079
2 *53:8 *53:7 2.18804
3 *53:3 *53:7 8.76079
4 *53:4 *53:3 3.51615
5 *53:6 *53:4 8.76079
6 *53:6 *53:5 431.837
7 *53:23 *53:5 8.76079
8 *53:23 *53:24 0.702026
9 *53:25 *53:24 8.76079
10 *53:17 *53:25 0.214118
11 *53:26 *53:25 2.16491
12 *53:18 *53:26 0.263733
13 *53:27 *53:26 2.16491
14 *53:29 *53:30 70.3044
15 *53:28 *53:29 186.956
16 *53:27 *53:28 186.956
17 *53:31 *53:30 0.59663
18 *53:15 *53:31 53.0023
19 *53:14 *53:15 81.7107
20 *53:13 *53:14 81.7107
21 *53:12 *53:13 81.7107
22 *53:11 *53:12 81.7107
23 *53:10 *53:11 81.7107
24 *53:9 *53:10 81.343
25 *53:21 *53:9 81.7107
26 *53:22 *53:21 0.59663
27 *53:20 *1055:PAD 3.82004
28 *53:19 *53:22 0.017922
29 *53:19 *53:20 0.0801725
30 *53:16 *53:19 0.0570675
31 *1055:PAD *53 0.00653203
*END

*D_NET *54 0.306302

*CONN
*P *54 I *C 80.71 1574 *L 0
*I *1054:PAD B *C 80.71 1574 *L 0 *D PADDI
*I *981:B0 I *C 1781.1 892.715 *L 0.000211 *D AOI22XL

*CAP
1 *1054:PAD 0.00192167
2 *981:B0 2.0594e-05
3 *54:3 0.000451351
4 *54:4 0.000451351
5 *54:5 2.66005e-05
6 *54:6 3.132e-05
7 *54:7 3.1749e-05
8 *54:8 2.70296e-05
9 *54:9 0.0224393
10 *54:10 0.0110817
11 *54:11 0.0195467
12 *54:12 0.02811718
13 *54:13 0.0266177
14 *54:14 0.023369
15 *54:15 0.0224834
16 *54:16 0.0166498
17 *54:17 0.0227688
18 *54:21 0.0142725
19 *54:22 6.52142e-05
20 *54:23 5.96367e-05
21 *54:24 0.001959
22 *54:25 0.00866619
23 *54:26 0.000278876
24 *54:27 0.00554106
25 *54:28 0.000278876
26 *54:29 0.00206883
27 *54:30 1.63035e-05
28 *54:31 2.70296e-05
29 *54:32 2.61715e-05
30 *54:33 0.00496572
31 *54:34 0.000527291
32 *54:35 0.000527291
33 *54:36 2.91748e-05
34 *54:37 0.0157342
35 *54:38 0.00438136
36 *54:39 0.00493011
37 *54:40 0.00492539
38 *54:41 0.00206883
39 *54:42 3.34652e-05
40 *54:43 2.91748e-05
41 *54:33 *19:3 0.00303538
42 *54:16 *19:4 0.00303538
43 *54:16 *19:4 0.00633401
44 *54:15 *19:5 0.00633401
45 *54:15 *19:5 0.00346603
46 *54:14 *19:6 0.00346603
47 *54:15 *19:6 0.00315048
48 *54:14 *19:7 0.00315048
49 *54:14 *19:6 0.00344194
50 *54:13 *19:7 0.0034419398

*RES
1 *981:B0 *54:42 1.21712
2 *54:8 *54:42 8.76079
3 *54:8 *54:7 1.34592
4 *54:7 *54:4 1.07142
5 *54:4 *54:3 31.6261
6 *54:6 *54:3 1.07122
7 *54:6 *54:5 1.34567
8 *54:24 *1054:PAD 3.76994
9 *54:43 *54:5 8.76079
10 *54:23 *54:24 0.0801725
11 *54:36 *54:43 1.4027
12 *54:22 *54:23 0.125454
13 *54:10 *54:36 8.76079
14 *54:21 *54:22 0.59663
15 *54:37 *54:38 314.239
16 *54:9 *54:37 780.874
17 *54:10 *54:9 782.455
18 *54:17 *54:25 49.1115
19 *54:21 *54:17 80.9751
20 *54:34 *54:38 1.07161
21 *54:26 *54:25 0.59663
22 *54:34 *54:35 37.8762
23 *54:26 *54:28 0.878719
24 *54:35 *54:39 1.07161
25 *54:27 *54:28 0.59663
26 *54:39 *54:40 353.649
27 *54:16 *54:33 38.1534
28 *54:15 *54:16 83.1669
29 *54:14 *54:15 83.1669
30 *54:13 *54:14 83.1669
31 *54:12 *54:13 83.1669
32 *54:11 *54:12 83.1669
33 *54:27 *54:11 32.3518
34 *54:41 *54:40 8.76079
35 *54:20 *54:32 0.250399
36 *54:32 *54:33 0.59663
37 *54:29 *54:41 155.434
38 *54:19 *54:31 0.250399
39 *54:31 *54:32 2.16491
40 *54:30 *54:29 8.76079
41 *54:30 *54:31 2.16491
42 *54:18 *54:30 1.02178
43 *1054:PAD *54 0.00653203
*END

*D_NET *55 0.306629

*CONN
*P *55 I *C 80.71 1512 *L 0
*I *1053:PAD B *C 80.71 1512 *L 0 *D PADDI
*I *985:B0 I *C 1780.7 831.155 *L 0.000211 *D AOI22XL

*CAP
1 *1053:PAD 0.00197496
2 *985:B0 1.14567e-05
3 *55:3 4.803e-05
4 *55:4 4.803e-05
5 *55:5 2.20321e-05
6 *55:6 2.20321e-05
7 *55:7 2.02695e-05
8 *55:8 2.02695e-05
9 *55:9 0.0168629
10 *55:10 0.0168501
11 *55:11 0.0281174
12 *55:12 0.0284919
13 *55:13 0.0284919
14 *55:14 0.02887746
15 *55:15 0.0240912
16 *55:19 0.0180597
17 *55:20 0.0141882
18 *55:21 0.000140565
19 *55:22 0.000134836
20 *55:23 0.0161182
21 *55:24 0.00212081
22 *55:25 0.00212081
23 *55:26 1.80663e-05
24 *55:27 1.63037e-05
25 *55:28 2.73198e-05
26 *55:29 0.00414952
27 *55:30 0.00415085
28 *55:31 0.0121833
29 *55:32 0.0244481
30 *55:33 0.0183796
31 *55:34 0.00611302
32 *55:35 0.00926185
33 *55:36 2.82011e-05
34 *55:33 *23:5 0.00051006
35 *55:32 *23:6 0.000510060004

*RES
1 *55:19 *1053:PAD 3.88243
2 *55:19 *55:23 23.4029
3 *55:22 *55:23 0.0798149
4 *55:21 *55:22 0.299306
5 *55:20 *55:21 0.595761
6 *55:15 *55:35 54.4708
7 *55:14 *55:15 83.1672
8 *55:13 *55:14 83.1672
9 *55:12 *55:13 83.1672
10 *55:11 *55:12 83.1672
11 *55:10 *55:11 83.1672
12 *55:9 *55:10 16.3621
13 *55:20 *55:9 83.1672
14 *55:34 *55:35 0.595761
15 *985:B0 *55:36 0.612865
16 *55:33 *55:34 79.0339
17 *55:32 *55:33 186.812546
18 *55:31 *55:32 186.812546
19 *55:4 *55:36 8.75969
20 *55:25 *55:31 0.279352
21 *55:4 *55:3 2.4087
22 *55:24 *55:25 29.2778
23 *55:5 *55:3 8.75969
24 *55:24 *55:30 0.279352
25 *55:6 *55:5 0.704082
26 *55:29 *55:30 62.6034
27 *55:7 *55:6 8.75969
28 *55:18 *55:28 0.2651
29 *55:28 *55:29 2.16355
30 *55:8 *55:7 0.729737
31 *55:17 *55:27 1.01194
32 *55:27 *55:28 2.16355
33 *55:26 *55:8 8.75969
34 *55:26 *55:27 8.75969
35 *55:16 *55:26 1.01194
36 *1053:PAD *55 0.00570107
*END

*D_NET *56 0.207114

*CONN
*P *56 I *C 80.71 1450 *L 0
*I *1052:PAD B *C 80.71 1450 *L 0 *D PADDI
*I *984:B0 I *C 1636.7 1448.465 *L 0.000211 *D AOI22XL

*CAP
1 *1052:PAD 0.00191062
2 *984:B0 2.24727e-05
3 *56:3 0.0281724
4 *56:4 0.0280226
5 *56:5 0.0281174
6 *56:6 0.0284919
7 *56:7 0.0284919
8 *56:8 0.02887746
9 *56:9 0.0149479
10 *56:15 3.48107e-05
11 *56:16 0.00194808
12 *56:17 0.0143253
13 *56:18 4.0539e-05
14 *56:19 1.80663e-05
15 *56:20 1.80663e-05
16 *56:21 0.000296552
17 *56:22 0.000296552
18 *56:23 1.80663e-05
19 *56:24 1.63037e-05
20 *56:25 2.73198e-05
21 *56:26 0.00145015
22 *56:27 0.00145015
23 *56:28 0.000118973

*RES
1 *1052:PAD *56:16 3.75766
2 *56:15 *56:16 0.079791
3 *56:15 *56:18 0.0361553
4 *56:17 *56:18 0.597186
5 *56:9 *56:28 0.568511
6 *56:8 *56:9 81.705986
7 *56:7 *56:8 81.705986
8 *56:6 *56:7 81.705986
9 *56:5 *56:6 81.705986
10 *56:4 *56:5 81.705986
11 *56:3 *56:4 81.1549
12 *56:17 *56:3 81.705986
13 *56:27 *56:28 0.597186
14 *56:26 *56:27 20.904
15 *56:14 *56:25 0.250594
16 *56:25 *56:26 2.16433
17 *56:13 *56:24 1.02232
18 *56:24 *56:25 2.16433
19 *56:12 *56:23 1.02232
20 *56:23 *56:24 8.7608
21 *56:22 *56:23 8.7608
22 *56:21 *56:22 20.8504
23 *56:11 *56:20 1.02232
24 *56:20 *56:21 8.7608
25 *56:19 *984:B0 8.7608
26 *56:19 *56:20 8.7608
27 *56:10 *56:19 1.02232
28 *1052:PAD *56 0.00623367
*END

*D_NET *57 0.205091

*CONN
*P *57 I *C 80.71 1388 *L 0
*I *1051:PAD B *C 80.71 1388 *L 0 *D PADDI
*I *982:B0 I *C 1575.1 1385.1949 *L 0.000211 *D AOI22XL

*CAP
1 *1051:PAD 0.00165575
2 *982:B0 2.28766e-05
3 *57:3 0.0165139
4 *57:4 0.0165139
5 *57:5 0.0277437
6 *57:6 0.02828716
7 *57:7 0.02828716
8 *57:8 0.0239341
9 *57:13 0.0163141
10 *57:14 0.000363005
11 *57:15 0.00170021
12 *57:16 0.000744569
13 *57:17 0.0160292
14 *57:18 0.000268045
15 *57:19 0.000750612
16 *57:20 0.000803703
17 *57:21 0.000204163
18 *57:22 0.0138852
19 *57:23 0.000803703
20 *57:24 5.99972e-05
21 *57:25 1.7697e-05
22 *57:26 1.7697e-05
23 *57:27 1.64021e-05
24 *57:28 0.0100761
25 *57:29 1.7697e-05
26 *57:30 5.99972e-05

*RES
1 *57:15 *1051:PAD 3.25761
2 *57:14 *57:15 0.0648818
3 *57:13 *57:14 0.627191
4 *57:13 *57:17 23.2709
5 *57:16 *57:17 0.0811023
6 *57:16 *57:19 2.57094
7 *57:18 *57:19 0.597453
8 *57:18 *57:21 1.06785
9 *57:20 *57:21 0.597453
10 *57:20 *57:23 11.6895
11 *57:22 *57:23 2.16543
12 *57:29 *982:B0 8.76175
13 *57:12 *57:29 1.02189
14 *57:8 *57:28 128.493
15 *57:7 *57:8 177.170593
16 *57:6 *57:7 177.170593
17 *57:5 *57:6 177.170593
18 *57:4 *57:5 177.170593
19 *57:3 *57:4 33.7412
20 *57:22 *57:3 177.170593
21 *57:30 *57:29 8.76175
22 *57:11 *57:27 1.02189
23 *57:27 *57:28 2.16543
24 *57:24 *57:30 3.53876
25 *57:10 *57:26 1.02189
26 *57:26 *57:27 8.76175
27 *57:25 *57:24 8.76175
28 *57:25 *57:26 8.76175
29 *57:9 *57:25 1.02189
30 *1051:PAD *57 0.00540682
*END

*D_NET *58 0.189444

*CONN
*P *58 I *C 80.71 1326 *L 0
*I *1050:PAD B *C 80.71 1326 *L 0 *D PADDI
*I *986:B0 I *C 1509.7 1328.765 *L 0.000211 *D AOI22XL

*CAP
1 *1050:PAD 0.00193033
2 *986:B0 2.26074e-05
3 *58:3 0.0192628
4 *58:4 0.0281171
5 *58:5 0.0284919
6 *58:6 0.0284919
7 *58:7 0.0202206
8 *58:8 0.0230531
9 *58:14 2.99983e-05
10 *58:15 0.00196772
11 *58:16 0.0142723
12 *58:17 3.56502e-05
13 *58:18 0.0052571
14 *58:19 0.000614314
15 *58:20 0.00894994
16 *58:21 0.000614314
17 *58:22 1.73903e-05
18 *58:23 1.73903e-05
19 *58:24 1.78251e-05
20 *58:25 0.000213032
21 *58:26 0.000213032
22 *58:27 1.78251e-05
23 *58:28 1.60861e-05
24 *58:29 2.6955e-05
25 *58:30 0.000679093
26 *58:31 0.000679093
27 *58:32 0.00621487

*RES
1 *58:22 *986:B0 8.76135
2 *58:22 *58:23 0.672584
3 *58:24 *58:23 8.76135
4 *58:10 *58:24 1.02157
5 *58:25 *58:24 8.76135
6 *58:25 *58:26 14.7968
7 *58:27 *58:26 8.76135
8 *58:11 *58:27 1.02157
9 *58:28 *58:27 8.76135
10 *58:12 *58:28 1.02157
11 *58:29 *58:28 2.16496
12 *58:13 *58:29 0.249998
13 *58:30 *58:29 2.16496
14 *58:30 *58:31 9.69536
15 *58:32 *58:31 0.596442
16 *58:7 *58:32 36.2155
17 *58:6 *58:7 83.1668701
18 *58:5 *58:6 83.1668701
19 *58:4 *58:5 83.1668701
20 *58:3 *58:4 83.1668701
21 *58:18 *58:3 30.6673
22 *58:19 *58:18 0.596442
23 *58:19 *58:21 2.07359
24 *58:20 *58:21 0.596442
25 *1050:PAD *58:15 3.79439
26 *58:8 *58:20 50.7509
27 *58:16 *58:8 80.9753
28 *58:14 *58:15 0.0799486
29 *58:17 *58:16 0.596442
30 *58:14 *58:17 0.0177664
31 *58:9 *58:17 0.0253805
32 *1050:PAD *58 0.00634513
*END

*D_NET *59 0.189253

*CONN
*P *59 I *C 80.71 1264 *L 0
*I *1049:PAD B *C 80.71 1264 *L 0 *D PADDI
*I *979:B0 I *C 1451.5 1267.205 *L 0.000211 *D AOI22XL

*CAP
1 *1049:PAD 0.00197689
2 *979:B0 2.28766e-05
3 *59:3 0.0165139
4 *59:4 0.0165139
5 *59:5 0.0277437
6 *59:6 0.02828716
7 *59:7 0.02828716
8 *59:8 0.0157676
9 *59:13 0.0179279
10 *59:14 0.000268045
11 *59:15 0.000681551
12 *59:16 0.000675939
13 *59:17 0.0159843
14 *59:18 0.0138852
15 *59:19 0.000855931
16 *59:20 0.000855931
17 *59:21 0.000204163
18 *59:22 0.000410916
19 *59:23 1.7697e-05
20 *59:24 1.7697e-05
21 *59:25 1.64021e-05
22 *59:26 0.00190912
23 *59:27 1.7697e-05
24 *59:28 0.000410916

*RES
1 *1049:PAD *59:13 3.88209
2 *59:13 *59:17 23.2034
3 *59:16 *59:17 0.0811023
4 *59:15 *59:16 2.32493
5 *59:14 *59:15 0.597453
6 *59:14 *59:21 1.06785
7 *59:20 *59:21 0.597453
8 *59:19 *59:20 12.4573
9 *59:18 *59:19 2.16543
10 *59:27 *979:B0 8.76175
11 *59:12 *59:27 1.02189
12 *59:8 *59:26 24.2117
13 *59:7 *59:8 177.170593
14 *59:6 *59:7 177.170593
15 *59:5 *59:6 177.170593
16 *59:4 *59:5 177.170593
17 *59:3 *59:4 33.7412
18 *59:18 *59:3 177.170593
19 *59:28 *59:27 8.76175
20 *59:11 *59:25 1.02189
21 *59:25 *59:26 2.16543
22 *59:22 *59:28 29.0265
23 *59:10 *59:24 1.02189
24 *59:24 *59:25 8.76175
25 *59:23 *59:22 8.76175
26 *59:23 *59:24 8.76175
27 *59:9 *59:23 1.02189
28 *1049:PAD *59 0.00540682
*END

*D_NET *60 0.183971

*CONN
*P *60 I *C 80.71 1202 *L 0
*I *1048:PAD B *C 80.71 1202 *L 0 *D PADDI
*I *976:A0 I *C 1135.78 701.315 *L 0.000211 *D AOI22XL

*CAP
1 *1048:PAD 0.00191223
2 *976:A0 2.27392e-05
3 *60:3 8.10887e-05
4 *60:4 8.10887e-05
5 *60:5 3.1749e-05
6 *60:6 2.70296e-05
7 *60:7 0.00748676
8 *60:8 0.0177486
9 *60:9 0.0196415
10 *60:10 0.02811718
11 *60:11 0.0249213
12 *60:12 0.0226744
13 *60:16 0.0142725
14 *60:17 6.04947e-05
15 *60:18 5.44882e-05
16 *60:19 0.00194956
17 *60:20 0.00563588
18 *60:21 0.000456499
19 *60:22 0.00857138
20 *60:23 0.000456499
21 *60:24 2.61715e-05
22 *60:25 0.00417414
23 *60:26 0.00417414
24 *60:27 0.0109157
25 *60:28 5.79205e-05
26 *60:29 1.80197e-05
27 *60:30 1.80197e-05
28 *60:31 1.63035e-05
29 *60:32 2.61715e-05
30 *60:33 0.0102841
31 *60:34 5.79205e-05

*RES
1 *60:19 *1048:PAD 3.75742
2 *60:18 *60:19 0.0801725
3 *60:17 *60:18 0.107532
4 *60:16 *60:17 0.59663
5 *60:12 *60:22 48.565
6 *60:16 *60:12 80.9751
7 *60:23 *60:22 0.59663
8 *60:21 *60:23 1.5114
9 *60:6 *976:A0 8.76079
10 *60:20 *60:21 0.59663
11 *60:6 *60:5 1.35071
12 *60:11 *60:27 62.1302
13 *60:10 *60:11 83.1669
14 *60:9 *60:10 83.1669
15 *60:20 *60:9 32.9132
16 *60:4 *60:5 1.07968
17 *60:26 *60:27 0.59663
18 *60:4 *60:3 5.59355
19 *60:25 *60:26 60.5924
20 *60:3 *60:33 1.07968
21 *60:24 *60:25 2.16491
22 *60:8 *60:7 571.978
23 *60:33 *60:8 786.651
24 *60:24 *60:32 0.159454
25 *60:34 *60:7 8.76079
26 *60:15 *60:31 1.02178
27 *60:31 *60:32 2.16491
28 *60:28 *60:34 3.53993
29 *60:14 *60:30 1.02178
30 *60:30 *60:31 8.76079
31 *60:29 *60:28 8.76079
32 *60:29 *60:30 8.76079
33 *60:13 *60:29 1.02178
34 *1048:PAD *60 0.00653203
*END

*D_NET *61 0.107759

*CONN
*P *61 I *C 80.71 1140 *L 0
*I *1047:PAD B *C 80.71 1140 *L 0 *D PADDI
*I *977:A0 I *C 583.98 641.225 *L 0.000211 *D AOI22XL

*CAP
1 *1047:PAD 0.00194399
2 *977:A0 2.25642e-05
3 *61:3 0.0207139
4 *61:4 0.0104646
5 *61:5 0.00715771
6 *61:6 0.02274992
7 *61:10 0.0142724
8 *61:11 7.53297e-05
9 *61:12 6.94283e-05
10 *61:13 0.00198148
11 *61:14 0.00424415
12 *61:15 1.80514e-05
13 *61:16 1.80514e-05
14 *61:17 1.80514e-05
15 *61:18 1.63157e-05
16 *61:19 2.7077e-05
17 *61:20 0.000148229
18 *61:21 0.000148229
19 *61:22 0.00858342
20 *61:23 0.0112023
21 *61:24 0.000952904
22 *61:25 0.00293126

*RES
1 *61:13 *1047:PAD 3.82004
2 *61:12 *61:13 0.0801725
3 *61:11 *61:12 0.161298
4 *61:4 *977:A0 8.76079
5 *61:10 *61:11 0.59663
6 *61:23 *61:24 71.1739
7 *61:3 *61:23 786.651
8 *61:4 *61:3 787.074
9 *61:6 *61:22 49.0025
10 *61:10 *61:6 80.9757
11 *61:25 *61:24 8.76079
12 *61:21 *61:22 0.59663
13 *61:5 *61:25 211.886
14 *61:14 *61:5 307.068
15 *61:20 *61:21 1.96925
16 *61:15 *61:14 8.76079
17 *61:9 *61:19 0.250399
18 *61:19 *61:20 2.16491
19 *61:15 *61:16 0.672587
20 *61:8 *61:18 1.02178
21 *61:18 *61:19 2.16491
22 *61:17 *61:16 8.76079
23 *61:17 *61:18 8.76079
24 *61:7 *61:17 1.02178
25 *1047:PAD *61 0.00653203
*END

*D_NET *62 0.150761

*CONN
*P *62 I *C 80.71 1078 *L 0
*I *1046:PAD B *C 80.71 1078 *L 0 *D PADDI
*I *973:A0 I *C 1203.78 1078.985 *L 0.000211 *D AOI22XL

*CAP
1 *1046:PAD 0.00191294
2 *973:A0 2.26074e-05
3 *62:3 0.0281515
4 *62:4 0.0280541
5 *62:5 0.0281171
6 *62:6 0.0284919
7 *62:7 0.0152848
8 *62:13 0.0142723
9 *62:14 6.52138e-05
10 *62:15 5.95619e-05
11 *62:16 0.00195033
12 *62:17 0.00121993
13 *62:18 0.000841258
14 *62:19 0.000500407
15 *62:20 1.78251e-05
16 *62:21 1.60861e-05
17 *62:22 2.6955e-05
18 *62:23 0.00121993
19 *62:24 1.78251e-05
20 *62:25 1.78251e-05
21 *62:26 0.000500407

*RES
1 *62:16 *1046:PAD 3.75772
2 *62:15 *62:16 0.0798453
3 *62:14 *62:15 0.126006
4 *62:13 *62:14 0.596345
5 *62:7 *62:18 4.77949
6 *62:6 *62:7 81.7616272
7 *62:5 *62:6 81.7616272
8 *62:4 *62:5 81.7616272
9 *62:3 *62:4 81.3936
10 *62:13 *62:3 81.7616272
11 *62:24 *973:A0 8.76053
12 *62:11 *62:24 1.02177
13 *62:17 *62:18 0.596345
14 *62:25 *62:24 8.76053
15 *62:12 *62:25 1.02177
16 *62:17 *62:23 17.5722
17 *62:26 *62:25 8.76053
18 *62:10 *62:22 0.250764
19 *62:22 *62:23 2.16456
20 *62:19 *62:26 35.6472
21 *62:9 *62:21 1.02177
22 *62:21 *62:22 2.16456
23 *62:20 *62:19 8.76053
24 *62:20 *62:21 8.76053
25 *62:8 *62:20 1.02177
26 *1046:PAD *62 0.00623792
*END

*D_NET *63 0.158545

*CONN
*P *63 I *C 80.71 1016 *L 0
*I *1045:PAD B *C 80.71 1016 *L 0 *D PADDI
*I *966:A0 I *C 1203.1801 1019.375 *L 0.000211 *D AOI22XL

*CAP
1 *1045:PAD 0.00194365
2 *966:A0 1.98552e-05
3 *63:3 0.0165139
4 *63:4 0.0165139
5 *63:5 0.0277437
6 *63:6 0.02828716
7 *63:7 0.0151763
8 *63:12 0.00203257
9 *63:13 0.000120858
10 *63:14 0.0141939
11 *63:15 0.00173215
12 *63:16 0.0141939
13 *63:17 0.000268045
14 *63:18 0.000213227
15 *63:19 0.000207616
16 *63:20 0.00173344
17 *63:21 0.0138852
18 *63:22 0.00132382
19 *63:23 0.00132382
20 *63:24 0.000204163
21 *63:25 3.28042e-05
22 *63:26 1.7697e-05
23 *63:27 1.85603e-05
24 *63:28 1.85603e-05
25 *63:29 1.7697e-05
26 *63:30 1.7697e-05
27 *63:31 1.64021e-05
28 *63:32 0.000774352

*RES
1 *1045:PAD *63:12 3.81992
2 *63:12 *63:13 0.132467
3 *63:13 *63:14 0.0621784
4 *63:14 *63:16 20.9622
5 *63:15 *63:16 0.0621784
6 *63:15 *63:20 2.10866
7 *63:19 *63:20 0.0811023
8 *63:18 *63:19 0.651522
9 *63:17 *63:18 0.597453
10 *63:17 *63:24 1.06785
11 *63:23 *63:24 0.597453
12 *63:22 *63:23 19.3807
13 *63:21 *63:22 2.16543
14 *63:7 *63:32 9.71875
15 *63:6 *63:7 177.170593
16 *63:5 *63:6 177.170593
17 *63:4 *63:5 177.170593
18 *63:3 *63:4 33.7412
19 *63:21 *63:3 177.170593
20 *63:11 *63:31 1.02189
21 *63:31 *63:32 2.16543
22 *63:10 *63:30 1.02189
23 *63:30 *63:31 8.76175
24 *63:9 *63:29 1.02189
25 *63:29 *63:30 8.76175
26 *63:28 *63:29 8.76175
27 *63:25 *966:A0 1.19761
28 *63:27 *63:28 0.708293
29 *63:26 *63:25 8.76175
30 *63:26 *63:27 8.76175
31 *63:8 *63:26 1.02189
32 *1045:PAD *63 0.00540682
*END

*D_NET *64 0.143343

*CONN
*P *64 I *C 80.71 954 *L 0
*I *1044:PAD B *C 80.71 954 *L 0 *D PADDI
*I *974:A0 I *C 1138.98 952.445 *L 0.000211 *D AOI22XL

*CAP
1 *1044:PAD 0.00191223
2 *974:A0 2.27392e-05
3 *64:3 4.33331e-05
4 *64:4 4.33331e-05
5 *64:5 0.0194836
6 *64:6 0.02811718
7 *64:7 0.0251988
8 *64:8 0.0227979
9 *64:13 0.000182771
10 *64:14 0.000182771
11 *64:15 3.99008e-05
12 *64:16 0.000184058
13 *64:17 5.70624e-05
14 *64:18 0.00206326
15 *64:19 0.0142699
16 *64:20 7.67983e-05
17 *64:21 0.00869751
18 *64:22 0.000476235
19 *64:23 0.00547799
20 *64:24 0.000476235
21 *64:25 0.00111593
22 *64:26 0.0111932
23 *64:27 1.80197e-05
24 *64:28 1.80197e-05
25 *64:29 1.80197e-05
26 *64:30 1.67326e-05
27 *64:31 1.67326e-05
28 *64:32 2.70296e-05
29 *64:33 0.00111593

*RES
1 *64:18 *1044:PAD 3.75759
2 *64:14 *64:18 0.0659893
3 *64:13 *64:14 0.0621823
4 *64:13 *64:16 0.0659893
5 *64:15 *64:16 0.0799486
6 *64:15 *64:17 0.0532991
7 *64:17 *64:20 0.115481
8 *64:19 *64:20 0.596442
9 *64:8 *64:21 49.294
10 *64:19 *64:8 80.9753
11 *64:22 *64:21 0.596442
12 *64:22 *64:24 1.58121
13 *64:23 *64:24 0.596442
14 *64:7 *64:26 63.7774
15 *64:6 *64:7 83.1668701
16 *64:5 *64:6 83.1668701
17 *64:23 *64:5 31.9769
18 *64:25 *64:26 0.596442
19 *64:25 *64:33 16.057
20 *64:12 *64:32 0.249998
21 *64:32 *64:33 2.16496
22 *64:31 *64:32 2.16496
23 *64:30 *64:31 0.672584
24 *64:3 *974:A0 8.76135
25 *64:11 *64:29 1.02157
26 *64:29 *64:30 8.76135
27 *64:4 *64:3 2.21191
28 *64:10 *64:28 1.02157
29 *64:28 *64:29 8.76135
30 *64:27 *64:4 8.76135
31 *64:27 *64:28 8.76135
32 *64:9 *64:27 1.02157
33 *1044:PAD *64 0.00634513
*END

*D_NET *65 0.142151

*CONN
*P *65 I *C 80.71 892 *L 0
*I *1043:PAD B *C 80.71 892 *L 0 *D PADDI
*I *967:A0 I *C 1079.78 890.885 *L 0.000211 *D AOI22XL

*CAP
1 *1043:PAD 0.00193805
2 *967:A0 2.28604e-05
3 *65:3 0.0165137
4 *65:4 0.0165137
5 *65:5 0.02774364
6 *65:6 0.0202039
7 *65:11 0.00202696
8 *65:12 0.000121075
9 *65:13 0.0141938
10 *65:14 0.00173189
11 *65:15 0.0141938
12 *65:16 0.000267975
13 *65:17 0.000878855
14 *65:18 0.000872929
15 *65:19 0.00173358
16 *65:20 0.0138856
17 *65:21 0.000855572
18 *65:22 0.000855572
19 *65:23 0.00020405
20 *65:24 0.000488959
21 *65:25 1.77803e-05
22 *65:26 1.77803e-05
23 *65:27 1.6087e-05
24 *65:28 0.00634588
25 *65:29 1.77803e-05
26 *65:30 0.000488959

*RES
1 *1043:PAD *65:11 3.8064
2 *65:11 *65:12 0.132467
3 *65:12 *65:13 0.0621784
4 *65:13 *65:15 20.9622
5 *65:14 *65:15 0.0621784
6 *65:14 *65:19 2.10866
7 *65:18 *65:19 0.0811023
8 *65:17 *65:18 3.03052
9 *65:16 *65:17 0.597453
10 *65:16 *65:23 1.06785
11 *65:22 *65:23 0.597453
12 *65:21 *65:22 12.4573
13 *65:20 *65:21 2.16543
14 *65:29 *967:A0 8.76175
15 *65:10 *65:29 1.02189
16 *65:6 *65:28 80.8535
17 *65:5 *65:6 177.170593
18 *65:4 *65:5 177.170593
19 *65:3 *65:4 33.7412
20 *65:20 *65:3 177.170593
21 *65:30 *65:29 8.76175
22 *65:9 *65:27 1.02189
23 *65:27 *65:28 2.16543
24 *65:24 *65:30 34.6901
25 *65:8 *65:26 1.02189
26 *65:26 *65:27 8.76175
27 *65:25 *65:24 8.76175
28 *65:25 *65:26 8.76175
29 *65:7 *65:25 1.02189
30 *1043:PAD *65 0.00540682
*END

*D_NET *66 0.137208

*CONN
*P *66 I *C 80.71 830 *L 0
*I *1042:PAD B *C 80.71 830 *L 0 *D PADDI
*I *975:A0 I *C 765.38 336.845 *L 0.000211 *D AOI22XL

*CAP
1 *1042:PAD 0.00194331
2 *975:A0 9.86889e-06
3 *66:3 0.000106841
4 *66:4 0.000102122
5 *66:5 0.0281199
6 *66:6 0.0280225
7 *66:7 0.0152667
8 *66:11 0.0142726
9 *66:12 6.7795e-05
10 *66:13 6.17878e-05
11 *66:14 0.00198064
12 *66:15 5.10608e-05
13 *66:16 0.0076175
14 *66:17 0.0076175
15 *66:18 0.00119757
16 *66:19 4.80572e-05
17 *66:20 1.80215e-05
18 *66:21 1.80215e-05
19 *66:22 1.63051e-05
20 *66:23 5.10608e-05
21 *66:24 2.27414e-05
22 *66:25 0.0107446
23 *66:26 0.0152629
24 *66:27 0.00454098
25 *66:28 4.80572e-05

*RES
1 *66:14 *1042:PAD 3.82004
2 *66:13 *66:14 0.0801725
3 *66:12 *66:13 0.107532
4 *66:11 *66:12 0.59663
5 *66:24 *975:A0 0.599202
6 *66:7 *66:18 6.52168
7 *66:6 *66:7 82.1856
8 *66:5 *66:6 81.6309
9 *66:11 *66:5 82.1856
10 *66:4 *66:24 8.76079
11 *66:17 *66:18 0.59663
12 *66:4 *66:3 12.1502
13 *66:16 *66:17 110.733
14 *66:3 *66:25 1.07968
15 *66:15 *66:16 2.16491
16 *66:26 *66:27 345.986
17 *66:25 *66:26 786.651
18 *66:15 *66:23 0.478361
19 *66:28 *66:27 8.76079
20 *66:10 *66:22 1.02178
21 *66:22 *66:23 2.16491
22 *66:19 *66:28 2.83194
23 *66:9 *66:21 1.02178
24 *66:21 *66:22 8.76079
25 *66:20 *66:19 8.76079
26 *66:20 *66:21 8.76079
27 *66:8 *66:20 1.02178
28 *1042:PAD *66 0.00653203
*END

*D_NET *67 0.123534

*CONN
*P *67 I *C 80.71 768 *L 0
*I *1041:PAD B *C 80.71 768 *L 0 *D PADDI
*I *965:A0 I *C 1073.58 766.295 *L 0.000211 *D AOI22XL

*CAP
1 *1041:PAD 0.00194505
2 *965:A0 2.26908e-05
3 *67:3 0.0103274
4 *67:4 0.0141275
5 *67:5 0.0129374
6 *67:6 0.0166451
7 *67:10 0.01813469
8 *67:11 0.000296088
9 *67:12 0.0162228
10 *67:13 3.40363e-05
11 *67:14 0.00012729
12 *67:15 0.000301899
13 *67:16 0.000120372
14 *67:17 1.79866e-05
15 *67:18 1.63263e-05
16 *67:19 2.71183e-05
17 *67:20 3.40363e-05
18 *67:21 0.0120505
19 *67:22 0.000120372
20 *67:23 2.60115e-05
21 *67:24 0.00580277
22 *67:25 0.00514141
23 *67:26 2.60115e-05
24 *67:27 0.00190852
25 *67:28 0.00521198
26 *67:29 0.00190852

*RES
1 *67:27 *965:A0 8.76079
2 *67:27 *67:29 144.606
3 *1041:PAD *67:10 3.82004
4 *67:28 *67:29 8.76079
5 *67:10 *67:12 23.5333
6 *67:3 *67:28 314.629
7 *67:25 *67:3 310.362
8 *67:11 *67:12 0.0801725
9 *67:26 *67:25 8.76079
10 *67:11 *67:15 0.968924
11 *67:23 *67:26 1.34517
12 *67:14 *67:15 0.59663
13 *67:24 *67:23 8.76079
14 *67:13 *67:14 0.59663
15 *67:6 *67:24 419.956
16 *67:5 *67:6 786.651
17 *67:4 *67:5 151.233
18 *67:21 *67:4 786.651
19 *67:13 *67:20 0.307651
20 *67:22 *67:21 8.76079
21 *67:9 *67:19 0.254275
22 *67:19 *67:20 2.16491
23 *67:16 *67:22 8.04069
24 *67:8 *67:18 1.01783
25 *67:18 *67:19 2.16491
26 *67:17 *67:16 8.76079
27 *67:17 *67:18 8.76079
28 *67:7 *67:17 1.01783
29 *1041:PAD *67 0.00653203
*END

*D_NET *68 0.045683

*CONN
*P *68 I *C 1388 80.71 *L 0
*I *1108:PAD B *C 1388 80.71 *L 0 *D PADDI
*I *1035:AN I *C 1389.9399 247.78 *L 0.00021 *D NAND2BXL
*I *1033:B I *C 1390.365 248.17 *L 0.000212 *D NAND2BXL

*CAP
1 *1108:PAD 0.00262756
2 *1035:AN 2.26818e-05
3 *1033:B 2.26818e-05
4 *68:4 2.96375e-05
5 *68:5 4.79846e-05
6 *68:6 0.00660645
7 *68:7 0.00659677
8 *68:11 0.00266083
9 *68:12 2.34883e-05
10 *68:13 0.00012722
11 *68:14 0.00038932
12 *68:15 1.7843e-05
13 *68:16 1.62301e-05
14 *68:17 2.71173e-05
15 *68:18 2.34883e-05
16 *68:19 0.00161595
17 *68:20 0.00038932
18 *68:21 2.60085e-05
19 *68:22 0.00161595
20 *68:23 4.76822e-05
21 *68:6 *69:24 0.0113744
22 *68:7 *69:21 0.01137436

*RES
1 *68:4 *1033:B 8.76012
2 *68:11 *1108:PAD 3.88971
3 *68:5 *68:4 1.3884
4 *68:7 *68:11 0.0808061
5 *68:23 *1035:AN 8.76012
6 *68:23 *68:5 2.22033
7 *68:7 *68:6 29.9827
8 *68:21 *68:23 1.38289
9 *68:13 *68:6 0.596864
10 *68:22 *68:21 8.76012
11 *68:12 *68:13 0.596864
12 *68:19 *68:22 120.357063
13 *68:12 *68:18 0.165285
14 *68:20 *68:19 8.76012
15 *68:10 *68:17 0.273639
16 *68:17 *68:18 2.16524
17 *68:14 *68:20 28.4676
18 *68:9 *68:16 1.05048
19 *68:16 *68:17 2.16524
20 *68:15 *68:14 8.76012
21 *68:15 *68:16 8.76012
22 *68:8 *68:15 1.05048
23 *1108:PAD *68 0.00734601
*END

*D_NET *69 0.045694

*CONN
*P *69 I *C 1326 80.71 *L 0
*I *1107:PAD B *C 1326 80.71 *L 0 *D PADDI
*I *1026:B I *C 1325.1 249.755 *L 0.000211 *D AND2X1
*I *1014:AN I *C 1324.5 249.755 *L 0.00021 *D NOR2BX1

*CAP
1 *1107:PAD 0.00258304
2 *1026:B 4.63819e-05
3 *1014:AN 2.97087e-05
4 *69:4 2.33425e-05
5 *69:5 2.33425e-05
6 *69:6 0.00149706
7 *69:7 0.001501
8 *69:8 3.31444e-05
9 *69:9 2.92034e-05
10 *69:13 1.68753e-05
11 *69:14 2.71824e-05
12 *69:15 2.6273e-05
13 *69:16 7.80106e-05
14 *69:17 0.000499591
15 *69:18 1.78858e-05
16 *69:19 1.68753e-05
17 *69:20 0.000499591
18 *69:21 0.00661655
19 *69:22 0.00261629
20 *69:23 0.000141571
21 *69:24 0.00662231
22 *69:24 *68:6 0.0113744
23 *69:21 *68:7 0.01137436

*RES
1 *1014:AN *1026:B 1.88174
2 *69:5 *1026:B 8.7608
3 *69:5 *69:4 1.49985
4 *69:9 *69:4 8.7608
5 *69:9 *69:8 1.41661
6 *69:8 *69:7 1.02166
7 *69:7 *69:6 106.957489
8 *1107:PAD *69:22 3.82387
9 *69:20 *69:6 8.7608
10 *69:21 *69:22 0.07997
11 *69:17 *69:20 34.725
12 *69:21 *69:24 30.1438
13 *69:18 *69:17 8.7608
14 *69:12 *69:18 1.0494
15 *69:23 *69:24 0.597327
16 *69:19 *69:18 8.7608
17 *69:16 *69:23 0.331304
18 *69:13 *69:19 0.691986
19 *69:11 *69:15 0.0571215
20 *69:15 *69:16 0.597327
21 *69:14 *69:13 2.16572
22 *69:14 *69:15 2.16572
23 *69:10 *69:14 0.274183
24 *1107:PAD *69 0.00652817
*END

*D_NET *70 0.0283285

*CONN
*P *70 I *C 1264 80.71 *L 0
*I *1106:PAD B *C 1264 80.71 *L 0 *D PADDI
*I *1013:AN I *C 1261.3 251.465 *L 0.00021 *D NOR2BX1
*I *1011:A0N I *C 1266.845 250.02 *L 0.000209 *D OAI2BB1X1
*I *1008:A0 I *C 1261.96 248.21 *L 0.000211 *D AOI21XL
*I *1004:A0N I *C 1263.4449 250.02 *L 0.000209 *D OAI2BB1X1

*CAP
1 *1106:PAD 0.00262758
2 *1013:AN 2.27208e-05
3 *1011:A0N 2.27208e-05
4 *1008:A0 2.27208e-05
5 *1004:A0N 2.27208e-05
6 *70:6 6.66658e-05
7 *70:7 4.84347e-05
8 *70:8 0.000105577
9 *70:9 6.39447e-05
10 *70:10 6.69379e-05
11 *70:11 2.3265e-05
12 *70:12 2.3265e-05
13 *70:13 3.02037e-05
14 *70:14 3.02037e-05
15 *70:15 0.000171426
16 *70:16 0.000117958
17 *70:17 5.56455e-05
18 *70:18 5.97271e-05
19 *70:19 6.43529e-05
20 *70:20 8.16316e-05
21 *70:21 8.16316e-05
22 *70:25 2.35371e-05
23 *70:26 0.00186664
24 *70:27 3.03397e-05
25 *70:28 1.78229e-05
26 *70:29 1.61903e-05
27 *70:30 2.72105e-05
28 *70:31 2.35371e-05
29 *70:32 3.03397e-05
30 *70:33 0.00193032
31 *70:34 7.68697e-05
32 *70:35 0.00889907
33 *70:36 0.00266078
34 *70:37 0.00891621

*RES
1 *70:7 *1008:A0 8.76099
2 *70:7 *70:6 2.78737
3 *70:9 *70:6 2.22337
4 *70:10 *1013:AN 8.76099
5 *70:12 *1004:A0N 8.76099
6 *70:9 *70:8 5.56402
7 *70:8 *70:10 4.03713
8 *1106:PAD *70:36 3.88907
9 *70:12 *70:11 1.5001
10 *70:16 *70:8 8.76099
11 *70:35 *70:36 0.0803626
12 *70:15 *70:11 8.76099
13 *70:16 *70:15 7.11331
14 *70:35 *70:37 31.9190693
15 *70:15 *70:19 4.0006
16 *70:34 *70:37 0.115917
17 *70:19 *70:21 1.02182
18 *70:33 *70:34 0.596632
19 *70:14 *1011:A0N 8.76099
20 *70:21 *70:20 4.95862
21 *70:26 *70:33 10.2611
22 *70:14 *70:13 1.34717
23 *70:18 *70:20 1.02182
24 *70:25 *70:26 0.596632
25 *70:17 *70:13 8.76099
26 *70:18 *70:17 4.54999
27 *70:25 *70:31 0.165596
28 *70:32 *70:17 8.76099
29 *70:24 *70:30 0.27372
30 *70:30 *70:31 2.16492
31 *70:27 *70:32 1.33548
32 *70:23 *70:29 1.05007
33 *70:29 *70:30 2.16492
34 *70:28 *70:27 8.76099
35 *70:28 *70:29 8.76099
36 *70:22 *70:28 1.05007
37 *1106:PAD *70 0.0063316
*END

*D_NET *71 0.0271925

*CONN
*P *71 I *C 1202 80.71 *L 0
*I *1105:PAD B *C 1202 80.71 *L 0 *D PADDI
*I *1024:A I *C 1201.9 248.235 *L 0.000211 *D NAND2XL

*CAP
1 *1105:PAD 0.00262753
2 *1024:A 2.26256e-05
3 *71:3 2.10095e-05
4 *71:4 2.10095e-05
5 *71:10 1.79119e-05
6 *71:11 2.61272e-05
7 *71:12 2.62619e-05
8 *71:13 0.00199052
9 *71:14 1.79119e-05
10 *71:15 1.79119e-05
11 *71:16 1.62958e-05
12 *71:17 2.61272e-05
13 *71:18 0.00882022
14 *71:19 0.0026608
15 *71:20 0.00205422
16 *71:21 0.00882601

*RES
1 *1105:PAD *71:19 3.88936
2 *71:18 *71:19 0.0801234
3 *71:18 *71:21 31.6323185
4 *71:20 *71:21 0.596581
5 *71:13 *71:20 11.4808
6 *71:6 *71:12 0.274157
7 *71:12 *71:13 0.596581
8 *71:11 *71:12 2.16478
9 *71:11 *71:17 0.174727
10 *71:9 *71:16 1.05464
11 *71:16 *71:17 2.16478
12 *71:8 *71:15 1.05464
13 *71:15 *71:16 8.76096
14 *71:7 *71:14 1.05464
15 *71:14 *71:15 8.76096
16 *71:3 *71:14 8.76096
17 *71:4 *71:3 0.815714
18 *71:10 *1024:A 8.76096
19 *71:10 *71:4 8.76096
20 *71:5 *71:10 1.05464
21 *1105:PAD *71 0.00675739
*END

*D_NET *72 0.0301068

*CONN
*P *72 O *C 80.0075 706 *L 0
*I *1116:PAD O *C 80.0075 706 *L 0 *D PADDO
*I *1023:Y O *C 251.115 701.07 *L 0 *D NOR2X1
*I *1017:AN I *C 251.1 702.905 *L 0.00021 *D NOR2BX1
*I *1010:B I *C 251.145 708.075 *L 0.000419 *D XNOR2X1

*CAP
1 *1116:PAD 0.00194416
2 *1023:Y 2.26925e-05
3 *1017:AN 2.26925e-05
4 *1010:B 2.26925e-05
5 *72:5 2.62225e-05
6 *72:6 0.000271134
7 *72:7 0.000344759
8 *72:8 9.98472e-05
9 *72:12 3.49633e-05
10 *72:13 0.00198148
11 *72:14 0.01101597
12 *72:15 4.06785e-05
13 *72:16 2.60544e-05
14 *72:17 0.00158394
15 *72:18 0.00158394
16 *72:19 0.0109524
17 *72:20 1.78178e-05
18 *72:21 2.75672e-05
19 *72:22 2.75672e-05
20 *72:23 1.78178e-05
21 *72:24 1.6305e-05
22 *72:25 2.60544e-05

*RES
1 *1116:PAD *72:13 3.81972
2 *72:12 *72:13 0.0805566
3 *72:12 *72:15 0.0354833
4 *72:14 *72:15 0.596502
5 *72:14 *72:19 62.849472
6 *72:18 *72:19 0.596502
7 *72:17 *72:18 23.2262
8 *72:16 *72:17 2.16448
9 *72:16 *72:25 0.162072
10 *72:11 *72:24 1.01751
11 *72:24 *72:25 2.16448
12 *72:8 *1023:Y 8.76053
13 *72:10 *72:23 1.01751
14 *72:23 *72:24 8.76053
15 *72:7 *1017:AN 8.76053
16 *72:8 *72:7 6.76004
17 *72:5 *1010:B 8.76053
18 *72:22 *72:23 8.76053
19 *72:7 *72:6 16.9006
20 *72:6 *72:5 1.34932
21 *72:21 *72:22 1.33973
22 *72:20 *72:6 8.76053
23 *72:20 *72:21 8.76053
24 *72:9 *72:20 1.01751
25 *1116:PAD *72 0.00671305
*END

*D_NET *73 0.0296093

*CONN
*P *73 O *C 80.0075 644 *L 0
*I *1115:PAD O *C 80.0075 644 *L 0 *D PADDO
*I *1027:Y O *C 249.725 644.475 *L 0 *D NOR2XL
*I *995:A I *C 249.765 641.09 *L 0.00021 *D AND2X1

*CAP
1 *1115:PAD 0.00194411
2 *1027:Y 2.26118e-05
3 *995:A 2.26118e-05
4 *73:4 0.00020201
5 *73:5 0.00020201
6 *73:6 1.91203e-05
7 *73:7 1.91203e-05
8 *73:11 4.47248e-05
9 *73:12 0.00198152
10 *73:13 0.01089605
11 *73:14 5.0544e-05
12 *73:15 0.000404518
13 *73:16 0.000404518
14 *73:17 1.79564e-05
15 *73:18 1.62938e-05
16 *73:19 2.71009e-05
17 *73:20 0.00125113
18 *73:21 0.00125113
19 *73:22 0.0108324

*RES
1 *1115:PAD *73:12 3.8198
2 *73:11 *73:12 0.0798963
3 *73:11 *73:14 0.071336
4 *73:5 *995:A 8.76101
5 *73:13 *73:14 0.596369
6 *73:4 *1027:Y 8.76101
7 *73:5 *73:4 12.7986
8 *73:13 *73:22 62.3343124
9 *73:6 *73:4 8.76101
10 *73:21 *73:22 0.596369
11 *73:7 *73:6 0.734285
12 *73:20 *73:21 19.7534
13 *73:15 *73:7 8.76101
14 *73:10 *73:19 0.27393
15 *73:19 *73:20 2.16481
16 *73:15 *73:16 29.1621
17 *73:9 *73:18 1.05482
18 *73:18 *73:19 2.16481
19 *73:17 *73:16 8.76101
20 *73:17 *73:18 8.76101
21 *73:8 *73:17 1.05482
22 *1115:PAD *73 0.00665802
*END

*D_NET *74 0.0298532

*CONN
*P *74 O *C 80.0075 582 *L 0
*I *1114:PAD O *C 80.0075 582 *L 0 *D PADDO
*I *1022:Y O *C 250.325 579.495 *L 0 *D NOR2XL
*I *1005:A I *C 251.365 579.53 *L 0.00021 *D AND2X1

*CAP
1 *1114:PAD 0.00193436
2 *1022:Y 2.5193e-05
3 *1005:A 2.26904e-05
4 *74:4 1.7852e-05
5 *74:5 3.62045e-05
6 *74:6 3.93745e-05
7 *74:10 3.00314e-05
8 *74:11 0.00197189
9 *74:12 0.01093393
10 *74:13 3.5704e-05
11 *74:14 2.60272e-05
12 *74:15 0.00180238
13 *74:16 0.00180238
14 *74:17 0.0108704
15 *74:18 4.05424e-05
16 *74:19 3.6705e-05
17 *74:20 3.6705e-05
18 *74:21 1.7852e-05
19 *74:22 1.61836e-05
20 *74:23 2.60272e-05
21 *74:24 2.40251e-05
22 *74:25 2.66946e-05
23 *74:26 3.95413e-05
24 *74:27 4.05424e-05

*RES
1 *1022:Y *74:6 1.28
2 *74:24 *74:6 1.301
3 *74:4 *1005:A 8.76054
4 *74:24 *74:25 0.604208
5 *74:5 *74:4 0.675797
6 *74:26 *74:25 8.76054
7 *74:26 *74:5 2.15243
8 *74:27 *74:26 8.76054
9 *74:18 *74:27 2.11521
10 *74:19 *74:18 8.76054
11 *74:19 *74:20 2.01021
12 *74:21 *74:20 8.76054
13 *74:8 *74:21 1.01751
14 *74:22 *74:21 8.76054
15 *74:9 *74:22 1.01751
16 *74:23 *74:22 2.16484
17 *74:14 *74:23 0.162268
18 *74:15 *74:14 2.16484
19 *74:15 *74:16 26.4553
20 *74:17 *74:16 0.596572
21 *1114:PAD *74:11 3.79515
22 *74:12 *74:17 62.5550957
23 *74:10 *74:11 0.0801793
24 *74:13 *74:12 0.596572
25 *74:10 *74:13 0.0181358
26 *74:7 *74:13 0.0257719
27 *1114:PAD *74 0.00668161
*END

*D_NET *75 0.0295075

*CONN
*P *75 O *C 80.0075 520 *L 0
*I *1113:PAD O *C 80.0075 520 *L 0 *D PADDO
*I *1020:Y O *C 250.14 521.745 *L 0 *D AND2X1
*I *1000:B0 I *C 251.1 519.745 *L 0.00021 *D OA21X1

*CAP
1 *1113:PAD 0.00191217
2 *1020:Y 5.25549e-05
3 *1000:B0 2.26904e-05
4 *75:4 8.37542e-05
5 *75:5 8.37542e-05
6 *75:7 4.47134e-05
7 *75:8 0.0019497
8 *75:9 0.01093393
9 *75:10 5.05528e-05
10 *75:11 2.60272e-05
11 *75:12 0.00158399
12 *75:13 0.00158399
13 *75:14 0.0108704
14 *75:15 4.63818e-05
15 *75:16 1.68509e-05
16 *75:17 1.68509e-05
17 *75:18 2.60272e-05
18 *75:19 6.54017e-05
19 *75:20 1.7852e-05
20 *75:21 3.6705e-05
21 *75:22 3.6705e-05
22 *75:23 4.63818e-05

*RES
1 *1113:PAD *75:8 3.75697
2 *75:7 *75:8 0.0801793
3 *75:7 *75:10 0.0715886
4 *75:9 *75:10 0.596572
5 *75:9 *75:14 62.5550957
6 *75:13 *75:14 0.596572
7 *75:12 *75:13 23.2272
8 *75:11 *75:12 2.16484
9 *75:11 *75:18 0.162268
10 *75:17 *75:18 2.16484
11 *75:16 *75:17 0.67007
12 *75:15 *75:16 8.76054
13 *75:15 *75:23 2.82059
14 *1020:Y *75:19 3.02104
15 *75:5 *1000:B0 8.76054
16 *75:22 *75:23 8.76054
17 *75:4 *75:19 8.76054
18 *75:5 *75:4 5.38633
19 *75:21 *75:22 2.01021
20 *75:20 *75:4 8.76054
21 *75:20 *75:21 8.76054
22 *75:6 *75:20 1.01751
23 *1113:PAD *75 0.00668161
*END

*D_NET *76 0.0292364

*CONN
*P *76 O *C 80.0075 458 *L 0
*I *1112:PAD O *C 80.0075 458 *L 0 *D PADDO
*I *1029:Y O *C 249.915 461.67 *L 0 *D NOR2X1
*I *1015:B0 I *C 251.1 461.795 *L 0.000212 *D AOI21XL
*I *1009:A I *C 250.165 458.63 *L 0.00021 *D AND2X1

*CAP
1 *1112:PAD 0.00110189
2 *1029:Y 2.26584e-05
3 *1015:B0 2.26584e-05
4 *1009:A 2.26584e-05
5 *76:5 8.70215e-05
6 *76:6 8.24241e-05
7 *76:7 8.29167e-05
8 *76:8 8.75141e-05
9 *76:13 0.00114638
10 *76:14 0.000886798
11 *76:15 3.49728e-05
12 *76:16 0.000879738
13 *76:17 0.01076029
14 *76:18 4.07195e-05
15 *76:19 0.000105247
16 *76:20 0.000853139
17 *76:21 0.000853139
18 *76:22 1.78969e-05
19 *76:23 1.6255e-05
20 *76:24 2.70916e-05
21 *76:25 0.000554146
22 *76:26 0.000554146
23 *76:27 0.0106967
24 *76:28 0.000126756
25 *76:29 3.25099e-05
26 *76:30 6.33779e-05
27 *76:31 1.78969e-05
28 *76:32 5.94373e-05

*RES
1 *1112:PAD *76:13 2.16637
2 *76:13 *76:14 0.0655599
3 *76:14 *76:16 1.65346
4 *76:6 *1009:A 8.76092
5 *76:31 *1015:B0 8.76092
6 *76:12 *76:31 1.01811
7 *76:15 *76:16 0.0800216
8 *76:6 *76:5 5.38459
9 *76:32 *76:31 8.76092
10 *76:15 *76:18 0.0356723
11 *76:8 *76:5 1.0721
12 *76:30 *76:32 2.821
13 *76:17 *76:18 0.596788
14 *76:7 *1029:Y 8.76092
15 *76:8 *76:7 5.60055
16 *76:29 *76:30 1.02196
17 *76:17 *76:27 61.635
18 *76:28 *76:7 8.76092
19 *76:28 *76:29 1.40665
20 *76:26 *76:27 0.596788
21 *76:19 *76:28 6.5531
22 *76:25 *76:26 8.60859
23 *76:20 *76:19 8.76092
24 *76:11 *76:24 0.273809
25 *76:24 *76:25 2.16444
26 *76:20 *76:21 63.1842995
27 *76:10 *76:23 0.221747
28 *76:23 *76:24 2.16444
29 *76:22 *76:21 8.76092
30 *76:22 *76:23 8.76092
31 *76:9 *76:22 1.04992
32 *1112:PAD *76 0.00674881
*END

*D_NET *77 0.0379419

*CONN
*P *77 O *C 80.0075 396 *L 0
*I *1111:PAD O *C 80.0075 396 *L 0 *D PADDO
*I *1025:Y O *C 249.725 398.235 *L 0 *D NOR2XL
*I *1006:B0 I *C 253.3 393.205 *L 0.00021 *D OA21X1

*CAP
1 *1111:PAD 0.00165569
2 *1025:Y 5.54224e-05
3 *1006:B0 2.25294e-05
4 *77:4 0.000238362
5 *77:5 0.000238362
6 *77:6 2.681e-05
7 *77:7 3.15412e-05
8 *77:8 3.15412e-05
9 *77:9 2.681e-05
10 *77:10 9.71019e-05
11 *77:11 0.000243543
12 *77:12 0.0144794
13 *77:13 0.01476467
14 *77:14 3.22171e-05
15 *77:15 9.59754e-05
16 *77:20 0.000362949
17 *77:21 0.00170007
18 *77:22 5.00154e-05
19 *77:23 3.40195e-05
20 *77:24 0.000355289
21 *77:25 1.62212e-05
22 *77:26 2.72606e-05
23 *77:27 3.40195e-05
24 *77:28 0.00136326
25 *77:29 0.000355289
26 *77:30 0.0001532
27 *77:31 0.00136326
28 *77:32 6.82642e-05
29 *77:33 1.77983e-05

*RES
1 *1025:Y *77:32 2.9699
2 *77:6 *77:32 8.76121
3 *77:7 *77:6 1.35192
4 *77:7 *77:4 1.07659
5 *77:5 *77:4 15.544
6 *77:8 *77:5 1.07659
7 *77:33 *1006:B0 8.76121
8 *77:19 *77:33 1.01781
9 *77:9 *77:8 1.35192
10 *77:10 *77:33 8.76121
11 *77:11 *77:9 8.76121
12 *77:11 *77:10 10.588
13 *77:30 *77:11 9.13708
14 *77:31 *77:30 8.76121
15 *77:28 *77:31 101.372612
16 *77:29 *77:28 8.76121
17 *77:24 *77:29 26.9286
18 *77:25 *77:24 8.76121
19 *77:17 *77:25 1.05029
20 *77:26 *77:25 2.16555
21 *77:18 *77:26 0.273788
22 *77:27 *77:26 2.16555
23 *77:21 *1111:PAD 3.25606
24 *77:23 *77:27 0.33102
25 *77:20 *77:21 0.0665134
26 *77:14 *77:23 0.597074
27 *77:13 *77:20 0.626463
28 *77:15 *77:14 0.0371238
29 *77:13 *77:12 21.2255
30 *77:22 *77:15 0.597074
31 *77:22 *77:12 0.0804348
32 *77:16 *77:22 0.0773412
33 *1111:PAD *77 0.00618729
*END

*D_NET *78 0.0293346

*CONN
*P *78 O *C 80.0075 334 *L 0
*I *1110:PAD O *C 80.0075 334 *L 0 *D PADDO
*I *1028:Y O *C 250.525 343.515 *L 0 *D NOR2XL
*I *1002:AN I *C 250.9 333.545 *L 0.00021 *D NOR2BX1

*CAP
1 *1110:PAD 0.00193026
2 *1028:Y 2.27618e-05
3 *1002:AN 2.27618e-05
4 *78:4 1.76113e-05
5 *78:5 0.000300223
6 *78:6 0.000294241
7 *78:7 4.55235e-05
8 *78:8 4.55235e-05
9 *78:9 4.31975e-05
10 *78:10 3.85455e-05
11 *78:11 4.22006e-05
12 *78:12 4.22006e-05
13 *78:13 9.66959e-05
14 *78:14 9.66959e-05
15 *78:19 0.00208112
16 *78:20 3.00721e-05
17 *78:21 0.000184088
18 *78:22 0.01088826
19 *78:23 3.5721e-05
20 *78:24 2.02696e-05
21 *78:25 0.000760276
22 *78:26 0.000760276
23 *78:27 1.79436e-05
24 *78:28 1.62821e-05
25 *78:29 2.72476e-05
26 *78:30 0.000314843
27 *78:31 0.000314843
28 *78:32 0.0108246
29 *78:33 2.02696e-05

*RES
1 *78:10 *1002:AN 8.76111
2 *78:10 *78:9 3.9806
3 *78:14 *78:9 1.07543
4 *78:14 *78:13 6.05545
5 *78:13 *78:8 1.07543
6 *78:8 *78:7 2.1936
7 *78:12 *78:7 1.07543
8 *78:12 *78:11 4.83942
9 *78:6 *78:11 1.07543
10 *78:5 *1028:Y 8.76111
11 *78:6 *78:5 20.1832
12 *78:5 *78:4 0.672616
13 *78:33 *78:4 8.76111
14 *78:24 *78:33 0.704917
15 *78:25 *78:24 8.76111
16 *78:25 *78:26 54.2682
17 *78:27 *78:26 8.76111
18 *78:16 *78:27 1.01747
19 *78:28 *78:27 8.76111
20 *78:17 *78:28 0.214705
21 *78:29 *78:28 2.1651
22 *78:18 *78:29 0.254606
23 *78:30 *78:29 2.1651
24 *78:30 *78:31 4.46036
25 *78:32 *78:31 0.596615
26 *78:22 *78:32 62.2607155
27 *1110:PAD *78:19 3.79534
28 *78:23 *78:22 0.596615
29 *78:19 *78:21 0.0655516
30 *78:20 *78:23 0.0180504
31 *78:20 *78:21 0.0798019
32 *78:15 *78:20 0.0570014
33 *1110:PAD *78 0.00665016
*END

*D_NET *79 0.0325734

*CONN
*P *79 O *C 80.0075 272 *L 0
*I *1109:PAD O *C 80.0075 272 *L 0 *D PADDO
*I *1019:Y O *C 249.3 273.315 *L 0 *D INVXL

*CAP
1 *1109:PAD 0.00192806
2 *1019:Y 1.96534e-05
3 *79:3 0.000815771
4 *79:4 0.000815771
5 *79:8 0.01022209
6 *79:9 4.07105e-05
7 *79:10 3.49393e-05
8 *79:11 0.00196549
9 *79:12 0.00271794
10 *79:13 0.0101585
11 *79:14 0.000300728
12 *79:15 0.00271794
13 *79:16 0.000225234
14 *79:17 1.79376e-05
15 *79:18 1.79376e-05
16 *79:19 1.62218e-05
17 *79:20 0.000300728
18 *79:21 3.24437e-05
19 *79:22 0.000225234

*RES
1 *79:11 *1109:PAD 3.78249
2 *79:10 *79:11 0.0804786
3 *79:9 *79:10 0.0359787
4 *79:8 *79:9 0.596488
5 *79:8 *79:13 59.0959
6 *79:12 *79:13 0.596488
7 *1019:Y *79:21 1.25452
8 *79:12 *79:15 43.1592
9 *79:4 *79:21 8.7608
10 *79:14 *79:15 2.16535
11 *79:4 *79:3 62.0499344
12 *79:14 *79:20 4.0192
13 *79:22 *79:3 8.7608
14 *79:7 *79:19 0.2225
15 *79:19 *79:20 2.16535
16 *79:16 *79:22 16.0796
17 *79:6 *79:18 1.05474
18 *79:18 *79:19 8.7608
19 *79:17 *79:16 8.7608
20 *79:17 *79:18 8.7608
21 *79:5 *79:17 0.2225
22 *1109:PAD *79 0.00662765
*END

*D_NET *80 0.0288147

*CONN
*P *80 O *C 1949.9926 706 *L 0
*I *1124:PAD O *C 1949.9926 706 *L 0 *D PADDO
*I *959:Y O *C 1779.14 708.25 *L 0 *D NAND4XL

*CAP
1 *1124:PAD 0.00194404
2 *959:Y 2.26392e-05
3 *80:3 4.59299e-05
4 *80:4 4.59299e-05
5 *80:5 1.95446e-05
6 *80:6 2.2965e-05
7 *80:7 0.000568423
8 *80:8 0.000568423
9 *80:9 0.01067382
10 *80:13 1.79159e-05
11 *80:14 1.62872e-05
12 *80:15 2.71996e-05
13 *80:16 0.000959805
14 *80:17 0.000959805
15 *80:18 0.00493681
16 *80:19 3.48546e-05
17 *80:20 7.78528e-05
18 *80:21 0.00584304
19 *80:22 4.0718e-05
20 *80:23 0.00198867

*RES
1 *1124:PAD *80:23 3.81994
2 *80:20 *80:23 0.066128
3 *80:19 *80:20 0.080426
4 *80:19 *80:22 0.0357449
5 *80:21 *80:22 0.596344
6 *80:6 *959:Y 8.76107
7 *80:9 *80:21 33.568
8 *80:18 *80:9 28.6561
9 *80:6 *80:5 0.729791
10 *80:17 *80:18 0.596344
11 *80:4 *80:5 8.76107
12 *80:16 *80:17 14.4898
13 *80:4 *80:3 2.11371
14 *80:15 *80:16 2.16495
15 *80:12 *80:15 0.263321
16 *80:8 *80:3 8.76107
17 *80:14 *80:15 2.16495
18 *80:11 *80:14 1.01277
19 *80:8 *80:7 39.0429459
20 *80:13 *80:14 8.76107
21 *80:13 *80:7 8.76107
22 *80:10 *80:13 1.01277
23 *1124:PAD *80 0.00655323
*END

*D_NET *81 0.0284858

*CONN
*P *81 O *C 1949.9926 644 *L 0
*I *1123:PAD O *C 1949.9926 644 *L 0 *D PADDO
*I *958:Y O *C 1780.34 646.69 *L 0 *D NAND4XL

*CAP
1 *1123:PAD 0.00194406
2 *958:Y 2.26807e-05
3 *81:3 1.99266e-05
4 *81:4 1.99266e-05
5 *81:5 0.000996493
6 *81:6 0.000996493
7 *81:7 0.010617
8 *81:11 4.35794e-05
9 *81:12 4.35794e-05
10 *81:13 1.78206e-05
11 *81:14 1.62005e-05
12 *81:15 2.72168e-05
13 *81:16 0.000460418
14 *81:17 0.000460418
15 *81:18 0.00484849
16 *81:19 4.47134e-05
17 *81:20 0.00198148
18 *81:21 0.00587463
19 *81:22 5.05456e-05

*RES
1 *1123:PAD *81:20 3.82005
2 *81:19 *81:20 0.0802167
3 *81:19 *81:22 0.0715447
4 *81:21 *81:22 0.596205
5 *81:4 *958:Y 8.76097
6 *81:7 *81:21 33.7517
7 *81:18 *81:7 28.1409
8 *81:4 *81:3 0.732791
9 *81:17 *81:18 0.596205
10 *81:11 *81:3 8.76097
11 *81:16 *81:17 6.85094
12 *81:11 *81:12 2.10515
13 *81:15 *81:16 2.16477
14 *81:10 *81:15 0.263414
15 *81:6 *81:12 8.76097
16 *81:14 *81:15 2.16477
17 *81:9 *81:14 0.21355
18 *81:6 *81:5 71.0416718
19 *81:13 *81:14 8.76097
20 *81:13 *81:5 8.76097
21 *81:8 *81:13 1.01247
22 *1123:PAD *81 0.00650406
*END

*D_NET *82 0.0288671

*CONN
*P *82 O *C 1949.9926 582 *L 0
*I *1122:PAD O *C 1949.9926 582 *L 0 *D PADDO
*I *957:Y O *C 1776.54 579.57 *L 0 *D NAND4XL

*CAP
1 *1122:PAD 0.00194714
2 *957:Y 2.26526e-05
3 *82:3 0.000839449
4 *82:4 0.000839449
5 *82:5 0.01068012
6 *82:9 0.000201429
7 *82:10 0.000201429
8 *82:11 1.79265e-05
9 *82:12 1.82524e-05
10 *82:13 0.000595649
11 *82:14 0.00491154
12 *82:15 1.82524e-05
13 *82:16 1.62968e-05
14 *82:17 2.72157e-05
15 *82:18 0.000595649
16 *82:19 0.00587451
17 *82:20 4.0742e-05
18 *82:21 3.48752e-05
19 *82:22 0.00198463

*RES
1 *82:22 *1122:PAD 3.81984
2 *82:21 *82:22 0.0801366
3 *82:20 *82:21 0.0356163
4 *82:19 *82:20 0.596572
5 *82:5 *82:19 33.7514
6 *82:14 *82:5 28.5088
7 *82:13 *82:14 0.596572
8 *82:13 *82:18 8.91099
9 *82:17 *82:18 2.16468
10 *82:8 *82:17 0.263165
11 *82:3 *957:Y 8.76061
12 *82:16 *82:17 2.16468
13 *82:7 *82:16 1.0121
14 *82:4 *82:3 64.8374329
15 *82:15 *82:16 8.76061
16 *82:9 *82:4 8.76061
17 *82:12 *82:15 0.701443
18 *82:9 *82:10 12.625
19 *82:11 *82:12 8.76061
20 *82:11 *82:10 8.76061
21 *82:6 *82:11 1.01308
22 *1122:PAD *82 0.00692538
*END

*D_NET *83 0.0358217

*CONN
*P *83 O *C 1949.9926 520 *L 0
*I *1121:PAD O *C 1949.9926 520 *L 0 *D PADDO
*I *960:Y O *C 1778.34 518.01 *L 0 *D NAND4XL

*CAP
1 *1121:PAD 0.00192495
2 *960:Y 2.26119e-05
3 *83:3 0.00113451
4 *83:4 0.00113915
5 *83:5 0.000288699
6 *83:6 0.000288699
7 *83:7 3.54457e-05
8 *83:8 3.08011e-05
9 *83:9 0.00801012
10 *83:13 0.000156328
11 *83:14 2.16341e-05
12 *83:15 0.003658
13 *83:16 4.60794e-05
14 *83:17 1.78451e-05
15 *83:18 1.62561e-05
16 *83:19 2.71343e-05
17 *83:20 2.16341e-05
18 *83:21 0.000156328
19 *83:22 4.60794e-05
20 *83:23 0.00445809
21 *83:24 6.97914e-05
22 *83:25 6.40467e-05
23 *83:26 0.00196235
24 *83:25 *84:9 4.054e-05
25 *83:24 *84:10 4.054e-05
26 *83:23 *84:11 0.00331365
27 *83:9 *84:12 0.00331365
28 *83:9 *84:12 0.00275557
29 *83:15 *84:13 0.00275557
30 *83:20 *84:14 2.92e-06
31 *83:14 *84:15 2.92019444e-06

*RES
1 *83:3 *960:Y 8.76045
2 *83:26 *1121:PAD 3.78214
3 *83:4 *83:3 80.3196335
4 *83:25 *83:26 0.0796627
5 *83:4 *83:5 1.07116
6 *83:24 *83:25 0.14707
7 *83:6 *83:5 19.5137
8 *83:23 *83:24 0.596858
9 *83:7 *83:6 1.07116
10 *83:9 *83:23 33.7513
11 *83:15 *83:9 28.067
12 *83:8 *83:7 1.34078
13 *83:14 *83:15 0.596858
14 *83:13 *83:8 8.76045
15 *83:14 *83:20 0.159325
16 *83:13 *83:21 9.81935
17 *83:19 *83:20 2.16437
18 *83:12 *83:19 0.2635
19 *83:22 *83:21 8.76045
20 *83:18 *83:19 2.16437
21 *83:11 *83:18 1.01233
22 *83:16 *83:22 2.66809
23 *83:17 *83:18 8.76045
24 *83:17 *83:16 8.76045
25 *83:10 *83:17 1.01233
26 *1121:PAD *83 0.0061279
*END

*D_NET *84 0.0358277

*CONN
*P *84 O *C 1949.9926 458 *L 0
*I *1120:PAD O *C 1949.9926 458 *L 0 *D PADDO
*I *963:Y O *C 1778.34 462.01 *L 0 *D NAND4XL

*CAP
1 *1120:PAD 0.00194417
2 *963:Y 2.27201e-05
3 *84:3 0.000791375
4 *84:4 0.000791375
5 *84:5 3.14871e-05
6 *84:6 2.67949e-05
7 *84:7 2.67949e-05
8 *84:8 3.14871e-05
9 *84:9 6.38385e-05
10 *84:10 5.81585e-05
11 *84:11 0.00448969
12 *84:12 0.00809218
13 *84:13 0.00370844
14 *84:14 0.000573065
15 *84:15 0.000573065
16 *84:19 0.000106686
17 *84:20 0.000106686
18 *84:21 1.79044e-05
19 *84:22 1.82749e-05
20 *84:23 1.82749e-05
21 *84:24 1.62992e-05
22 *84:25 2.71653e-05
23 *84:26 7.77916e-05
24 *84:27 0.00198863
25 *84:9 *83:25 4.054e-05
26 *84:10 *83:24 4.054e-05
27 *84:11 *83:23 0.00331365
28 *84:12 *83:9 0.00331365
29 *84:12 *83:9 0.00275557
30 *84:13 *83:15 0.00275557
31 *84:14 *83:20 2.92e-06
32 *84:15 *83:14 2.92019444e-06

*RES
1 *1120:PAD *84:27 3.81975
2 *84:26 *84:27 0.0663091
3 *84:10 *84:26 0.0802689
4 *84:10 *84:9 0.143088
5 *84:11 *84:9 0.596782
6 *84:6 *963:Y 8.76065
7 *84:12 *84:11 33.9354
8 *84:13 *84:12 28.362
9 *84:6 *84:5 1.34014
10 *84:14 *84:13 0.596782
11 *84:5 *84:4 1.07142
12 *84:15 *84:14 8.85488
13 *84:4 *84:3 57.1793633
14 *84:25 *84:15 2.16464
15 *84:18 *84:25 0.262619
16 *84:8 *84:3 1.07142
17 *84:24 *84:25 2.16464
18 *84:17 *84:24 0.21376
19 *84:8 *84:7 1.34014
20 *84:23 *84:24 8.76065
21 *84:19 *84:7 8.76065
22 *84:22 *84:23 0.70148
23 *84:19 *84:20 6.31245
24 *84:21 *84:22 8.76065
25 *84:21 *84:20 8.76065
26 *84:16 *84:21 0.21376
27 *1120:PAD *84 0.00610742
*END

*D_NET *85 0.0282919

*CONN
*P *85 O *C 1949.9926 396 *L 0
*I *1119:PAD O *C 1949.9926 396 *L 0 *D PADDO
*I *962:Y O *C 1780.34 398.31 *L 0 *D NAND4XL

*CAP
1 *1119:PAD 0.00172382
2 *962:Y 1.9733e-05
3 *85:3 0.000708979
4 *85:4 0.000708979
5 *85:5 0.01026352
6 *85:9 3.25751e-05
7 *85:10 0.000194511
8 *85:11 0.000194511
9 *85:12 1.78537e-05
10 *85:13 1.78537e-05
11 *85:14 1.62876e-05
12 *85:15 0.000138444
13 *85:16 0.000138444
14 *85:17 0.000772563
15 *85:18 0.000772563
16 *85:19 0.00449506
17 *85:20 0.000217376
18 *85:21 0.00176125
19 *85:22 0.00587449
20 *85:23 0.000223014

*RES
1 *1119:PAD *85:21 3.38179
2 *85:20 *85:21 0.08035
3 *85:20 *85:23 0.69873
4 *85:22 *85:23 0.596323
5 *85:5 *85:22 33.7517
6 *85:19 *85:5 26.0807
7 *85:18 *85:19 0.596323
8 *85:17 *85:18 11.6318
9 *962:Y *85:9 1.22573
10 *85:16 *85:17 2.16472
11 *85:4 *85:9 8.76051
12 *85:15 *85:16 1.67947
13 *85:4 *85:3 51.6256714
14 *85:14 *85:15 2.16472
15 *85:8 *85:14 1.01304
16 *85:10 *85:3 8.76051
17 *85:13 *85:14 8.76051
18 *85:7 *85:13 1.01304
19 *85:10 *85:11 13.3397
20 *85:12 *85:13 8.76051
21 *85:12 *85:11 8.76051
22 *85:6 *85:12 1.01383
23 *1119:PAD *85 0.00630196
*END

*D_NET *86 0.0288658

*CONN
*P *86 O *C 1949.9926 334 *L 0
*I *1118:PAD O *C 1949.9926 334 *L 0 *D PADDO
*I *961:Y O *C 1777.34 333.33 *L 0 *D NAND4XL

*CAP
1 *1118:PAD 0.00193143
2 *961:Y 5.06846e-05
3 *86:3 0.0014669
4 *86:4 0.0014669
5 *86:5 0.01074956
6 *86:11 6.36428e-05
7 *86:12 1.86992e-05
8 *86:13 1.83711e-05
9 *86:14 1.62387e-05
10 *86:15 2.72286e-05
11 *86:16 2.62444e-05
12 *86:17 0.00501252
13 *86:18 1.86992e-05
14 *86:19 1.7879e-05
15 *86:20 1.83711e-05
16 *86:21 3.00171e-05
17 *86:22 7.77492e-05
18 *86:23 0.005843
19 *86:24 3.57581e-05
20 *86:25 0.00197588

*RES
1 *1118:PAD *86:25 3.79431
2 *961:Y *86:11 3.04178
3 *86:22 *86:25 0.0665961
4 *86:4 *86:11 8.76072
5 *86:21 *86:22 0.0799153
6 *86:10 *86:21 0.0566067
7 *86:4 *86:3 109.111069
8 *86:21 *86:24 0.0183139
9 *86:12 *86:3 8.76072
10 *86:23 *86:24 0.596035
11 *86:12 *86:18 0.700924
12 *86:5 *86:23 33.5678
13 *86:17 *86:5 29.0975
14 *86:9 *86:19 1.01393
15 *86:19 *86:18 8.76072
16 *86:16 *86:17 0.596035
17 *86:8 *86:16 0.263055
18 *86:20 *86:19 8.76072
19 *86:15 *86:16 2.16437
20 *86:7 *86:15 0.263055
21 *86:13 *86:20 0.700924
22 *86:14 *86:15 2.16437
23 *86:14 *86:13 8.76072
24 *86:6 *86:14 1.01226
25 *1118:PAD *86 0.00665961
*END

*D_NET *87 0.0287468

*CONN
*P *87 O *C 1949.9926 272 *L 0
*I *1117:PAD O *C 1949.9926 272 *L 0 *D PADDO
*I *964:Y O *C 1777.54 271.77 *L 0 *D NAND4XL

*CAP
1 *1117:PAD 0.00191522
2 *964:Y 3.93177e-05
3 *87:3 0.00144094
4 *87:4 0.00144094
5 *87:5 0.01078112
6 *87:10 5.21495e-05
7 *87:11 1.87541e-05
8 *87:12 1.82605e-05
9 *87:13 1.62864e-05
10 *87:14 2.7144e-05
11 *87:15 2.6157e-05
12 *87:16 0.0050126
13 *87:17 1.87541e-05
14 *87:18 1.79315e-05
15 *87:19 1.82605e-05
16 *87:20 3.4876e-05
17 *87:21 0.00195273
18 *87:22 0.00587463
19 *87:23 4.06338e-05

*RES
1 *964:Y *87:10 2.50864
2 *1117:PAD *87:21 3.75802
3 *87:4 *87:10 8.7605
4 *87:20 *87:21 0.0805525
5 *87:4 *87:3 107.736519
6 *87:20 *87:23 0.0361664
7 *87:11 *87:3 8.7605
8 *87:22 *87:23 0.596746
9 *87:11 *87:17 0.701958
10 *87:5 *87:22 33.7515
11 *87:16 *87:5 29.0975
12 *87:9 *87:18 1.01266
13 *87:18 *87:17 8.7605
14 *87:15 *87:16 0.596746
15 *87:8 *87:15 0.263029
16 *87:19 *87:18 8.7605
17 *87:14 *87:15 2.16505
18 *87:7 *87:14 0.263029
19 *87:12 *87:19 0.701958
20 *87:13 *87:14 2.16505
21 *87:13 *87:12 8.7605
22 *87:6 *87:13 1.01266
23 *1117:PAD *87 0.00657572
*END

*D_NET *88 0.00015786

*CONN
*I *1001:D I *C 270.5 1780.205 *L 0.000307 *D DFFHQX1
*I *591:Y O *C 270.735 1778.96 *L 0 *D BUFX2

*CAP
1 *1001:D 7.893e-05
2 *591:Y 7.893e-05

*RES
1 *1001:D *591:Y 9.35169
*END

*D_NET *89 1.8e-06

*CONN
*I *593:A I *C 279.1 1776.785 *L 0.00021 *D BUFX2
*I *592:Y O *C 279.735 1776.3199 *L 0 *D BUFX2

*CAP
1 *593:A 9e-07
2 *592:Y 9e-07

*RES
1 *592:Y *593:A 0.0703552
*END

*D_NET *90 3.12e-06

*CONN
*I *594:A I *C 279.1 1773.365 *L 0.00021 *D BUFX2
*I *593:Y O *C 278.735 1776.3199 *L 0 *D BUFX2

*CAP
1 *594:A 1.56e-06
2 *593:Y 1.56e-06

*RES
1 *593:Y *594:A 0.123122
*END

*D_NET *91 5.937e-05

*CONN
*I *1030:D I *C 278.5 1775.075 *L 0.000307 *D DFFHQX1
*I *594:Y O *C 278.735 1772.9 *L 0 *D BUFX2

*CAP
1 *1030:D 2.26699e-05
2 *594:Y 1.388e-05
3 *91:2 2.282e-05

*RES
1 *91:2 *1030:D 8.76079178
2 *594:Y *91:2 1.0955
*END

*D_NET *92 1.82e-06

*CONN
*I *596:A I *C 269.5 1771.655 *L 0.00021 *D BUFX2
*I *595:Y O *C 270.735 1769.48 *L 0 *D BUFX2

*CAP
1 *596:A 9.1e-07
2 *595:Y 9.1e-07

*RES
1 *595:Y *596:A 0.071044
*END

*D_NET *93 3.18e-06

*CONN
*I *597:A I *C 271.1 1771.655 *L 0.00021 *D BUFX2
*I *596:Y O *C 269.135 1772.12 *L 0 *D BUFX2

*CAP
1 *597:A 1.59e-06
2 *596:Y 1.59e-06

*RES
1 *596:Y *597:A 0.124327
*END

*D_NET *94 0.00085846

*CONN
*I *597:Y O *C 270.735 1772.12 *L 0 *D BUFX2
*I *591:A I *C 271.1 1778.495 *L 0.00021 *D BUFX2

*CAP
1 *597:Y 0.00042923
2 *591:A 0.00042923

*RES
1 *597:Y *591:A 31.1773
*END

*D_NET *95 0.00079034

*CONN
*I *599:A I *C 272.5 1775.075 *L 0.00021 *D BUFX2
*I *598:Y O *C 277.735 1772.9 *L 0 *D BUFX2

*CAP
1 *599:A 0.00039517
2 *598:Y 0.00039517

*RES
1 *599:A *598:Y 46.8216
*END

*D_NET *96 0.00074768

*CONN
*I *600:A I *C 277.9 1776.785 *L 0.00021 *D BUFX2
*I *599:Y O *C 272.135 1775.54 *L 0 *D BUFX2

*CAP
1 *600:A 0.00037384
2 *599:Y 0.00037384

*RES
1 *599:Y *600:A 44.2942
*END

*D_NET *97 0.00038504

*CONN
*I *601:A I *C 276.1 1778.495 *L 0.00021 *D BUFX2
*I *600:Y O *C 277.535 1776.3199 *L 0 *D BUFX2

*CAP
1 *601:A 0.00019252
2 *600:Y 0.00019252

*RES
1 *601:A *600:Y 22.8105
*END

*D_NET *98 0.00074234

*CONN
*I *602:A I *C 277.1 1773.365 *L 0.00021 *D BUFX2
*I *601:Y O *C 275.735 1778.96 *L 0 *D BUFX2

*CAP
1 *602:A 0.00037117
2 *601:Y 0.00037117

*RES
1 *601:Y *602:A 43.9782
*END

*D_NET *99 0.00057702

*CONN
*I *603:A I *C 273.5 1775.075 *L 0.00021 *D BUFX2
*I *602:Y O *C 276.735 1772.9 *L 0 *D BUFX2

*CAP
1 *603:A 0.00028851
2 *602:Y 0.00028851

*RES
1 *603:A *602:Y 34.1842
*END

*D_NET *100 4.6e-07

*CONN
*I *604:A I *C 276.9 1776.785 *L 0.00021 *D BUFX2
*I *603:Y O *C 273.135 1775.54 *L 0 *D BUFX2

*CAP
1 *604:A 2.3e-07
2 *603:Y 2.3e-07

*RES
1 *603:Y *604:A 0.0176612
*END

*D_NET *101 9.4e-07

*CONN
*I *605:A I *C 276.1 1773.365 *L 0.00021 *D BUFX2
*I *604:Y O *C 276.535 1776.3199 *L 0 *D BUFX2

*CAP
1 *605:A 4.7e-07
2 *604:Y 4.7e-07

*RES
1 *604:Y *605:A 0.0353224
*END

*D_NET *102 1.88e-06

*CONN
*I *606:A I *C 274.5 1775.075 *L 0.00021 *D BUFX2
*I *605:Y O *C 275.735 1772.9 *L 0 *D BUFX2

*CAP
1 *606:A 9.4e-07
2 *605:Y 9.4e-07

*RES
1 *605:Y *606:A 0.0706447
*END

*D_NET *103 0.00041017

*CONN
*I *999:D I *C 275.97 1776.715 *L 0.00021 *D DFFQXL
*I *606:Y O *C 274.135 1775.54 *L 0 *D BUFX2

*CAP
1 *999:D 2.26693e-05
2 *606:Y 1.6307e-06
3 *103:2 1.61703e-05
4 *103:3 7.69292e-05
5 *103:4 0.00010416
6 *103:5 2.8159e-05
7 *103:6 9.61797e-05
8 *103:7 6.42698e-05

*RES
1 *103:7 *999:D 8.76079178
2 *103:6 *103:7 3.64021
3 *103:4 *103:6 3.21284
4 *103:3 *103:4 6.68529
5 *103:3 *103:5 1.07291
6 *606:Y *103:2 0.123653
7 *103:2 *103:5 1.09497
*END

*D_NET *104 0.00059622

*CONN
*I *608:A I *C 260.7 1771.655 *L 0.00021 *D BUFX2
*I *607:Y O *C 263.335 1768.7 *L 0 *D BUFX2

*CAP
1 *608:A 0.00029811
2 *607:Y 0.00029811

*RES
1 *608:A *607:Y 35.3216
*END

*D_NET *105 0.00072848

*CONN
*I *609:A I *C 266.7 1771.655 *L 0.00021 *D BUFX2
*I *608:Y O *C 260.335 1772.12 *L 0 *D BUFX2

*CAP
1 *609:A 0.00036424
2 *608:Y 0.00036424

*RES
1 *608:Y *609:A 43.1568
*END

*D_NET *106 0.00038504

*CONN
*I *610:A I *C 264.9 1769.9449 *L 0.00021 *D BUFX2
*I *609:Y O *C 266.335 1772.12 *L 0 *D BUFX2

*CAP
1 *610:A 0.00019252
2 *609:Y 0.00019252

*RES
1 *610:A *609:Y 22.8105
*END

*D_NET *107 0.00043196

*CONN
*I *611:A I *C 264.7 1773.365 *L 0.00021 *D BUFX2
*I *610:Y O *C 264.535 1769.48 *L 0 *D BUFX2

*CAP
1 *611:A 0.00021598
2 *610:Y 0.00021598

*RES
1 *610:Y *611:A 25.5908
*END

*D_NET *108 0.00022398

*CONN
*I *612:A I *C 262.7 1773.365 *L 0.00021 *D BUFX2
*I *611:Y O *C 264.335 1772.9 *L 0 *D BUFX2

*CAP
1 *612:A 0.00011199
2 *611:Y 0.00011199

*RES
1 *612:A *611:Y 13.2693
*END

*D_NET *109 0.00027838

*CONN
*I *613:A I *C 263.7 1771.655 *L 0.00021 *D BUFX2
*I *612:Y O *C 262.335 1772.9 *L 0 *D BUFX2

*CAP
1 *613:A 0.00013919
2 *612:Y 0.00013919

*RES
1 *612:Y *613:A 16.4918
*END

*D_NET *110 0.00022398

*CONN
*I *614:A I *C 261.7 1771.655 *L 0.00021 *D BUFX2
*I *613:Y O *C 263.335 1772.12 *L 0 *D BUFX2

*CAP
1 *614:A 0.00011199
2 *613:Y 0.00011199

*RES
1 *614:A *613:Y 13.2693
*END

*D_NET *111 0.00050556

*CONN
*I *615:A I *C 263.9 1769.9449 *L 0.00021 *D BUFX2
*I *614:Y O *C 261.335 1772.12 *L 0 *D BUFX2

*CAP
1 *615:A 0.00025278
2 *614:Y 0.00025278

*RES
1 *614:Y *615:A 29.9507
*END

*D_NET *112 5.4e-07

*CONN
*I *616:A I *C 263.7 1773.365 *L 0.00021 *D BUFX2
*I *615:Y O *C 263.535 1769.48 *L 0 *D BUFX2

*CAP
1 *616:A 2.7e-07
2 *615:Y 2.7e-07

*RES
1 *615:Y *616:A 0.0193026
*END

*D_NET *113 8.8e-07

*CONN
*I *617:A I *C 264.7 1771.655 *L 0.00021 *D BUFX2
*I *616:Y O *C 263.335 1772.9 *L 0 *D BUFX2

*CAP
1 *617:A 4.4e-07
2 *616:Y 4.4e-07

*RES
1 *616:Y *617:A 0.0353764
*END

*D_NET *114 1.8e-06

*CONN
*I *618:A I *C 262.7 1771.655 *L 0.00021 *D BUFX2
*I *617:Y O *C 264.335 1772.12 *L 0 *D BUFX2

*CAP
1 *618:A 9e-07
2 *617:Y 9e-07

*RES
1 *617:Y *618:A 0.0707528
*END

*D_NET *115 3.12e-06

*CONN
*I *619:A I *C 265.7 1771.655 *L 0.00021 *D BUFX2
*I *618:Y O *C 262.335 1772.12 *L 0 *D BUFX2

*CAP
1 *619:A 1.56e-06
2 *618:Y 1.56e-06

*RES
1 *618:Y *619:A 0.123817
*END

*D_NET *116 0.00110065

*CONN
*I *1012:D I *C 262.3 1780.205 *L 0.000307 *D DFFHQX1
*I *619:Y O *C 265.335 1772.12 *L 0 *D BUFX2

*CAP
1 *1012:D 2.26722e-05
2 *619:Y 0.000418278
3 *116:2 0.000116239
4 *116:3 7.07216e-05
5 *116:4 0.00047274

*RES
1 *116:3 *1012:D 8.76101
2 *116:2 *116:3 4.84688
3 *116:2 *116:4 4.44587
4 *619:Y *116:4 30.3821239
*END

*D_NET *117 2.04e-06

*CONN
*I *621:A I *C 281.7 1775.075 *L 0.00021 *D BUFX2
*I *620:Y O *C 279.735 1772.9 *L 0 *D BUFX2

*CAP
1 *621:A 1.02e-06
2 *620:Y 1.02e-06

*RES
1 *621:A *620:Y 0.0804687
*END

*D_NET *118 4.76e-06

*CONN
*I *622:A I *C 280.1 1775.075 *L 0.00021 *D BUFX2
*I *621:Y O *C 281.335 1775.54 *L 0 *D BUFX2

*CAP
1 *622:A 2.38e-06
2 *621:Y 2.38e-06

*RES
1 *622:A *621:Y 0.18776
*END

*D_NET *119 0.00012798

*CONN
*I *622:Y O *C 279.735 1775.54 *L 0 *D BUFX2
*I *592:A I *C 280.1 1776.785 *L 0.00021 *D BUFX2

*CAP
1 *622:Y 6.33104e-05
2 *592:A 6.79592e-07
3 *119:2 6.399e-05

*RES
1 *119:2 *622:Y 4.98906136
2 *119:2 *592:A 0.052756
*END

*D_NET *120 4.54e-05

*CONN
*I *590:A I *C 271.1 1773.365 *L 0.00021 *D BUFX2
*I *623:Y O *C 271.735 1772.12 *L 0 *D BUFX2

*CAP
1 *590:A 2.29996e-07
2 *623:Y 2.247e-05
3 *120:2 2.27e-05

*RES
1 *120:2 *623:Y 1.7803179
2 *120:2 *590:A 0.0177662
*END

*D_NET *121 0.000274551

*CONN
*I *661:A I *C 769.5 583.395 *L 0.0012 *D INVX3
*I *624:Y O *C 770.535 582.74 *L 0 *D BUFX2

*CAP
1 *661:A 1.137e-05
2 *624:Y 2.267e-05
3 *121:2 7.778e-05
4 *121:3 7.778e-05
5 *121:5 1.95296e-05
6 *121:6 2.80001e-05
7 *121:7 1.95296e-05
8 *121:8 1.78905e-05

*RES
1 *121:6 *661:A 0.599283
2 *121:7 *121:6 8.76079178
3 *121:5 *121:7 0.734032
4 *121:3 *121:5 8.76079178
5 *121:3 *121:2 4.4451
6 *121:8 *121:2 8.76079178
7 *121:8 *624:Y 8.76079178
8 *121:4 *121:8 1.02184
*END

*D_NET *122 0.00043976

*CONN
*I *691:A I *C 1779.9 952.755 *L 0.000801 *D INVX2
*I *625:Y O *C 1780.735 954.74 *L 0 *D BUFX2

*CAP
1 *691:A 1.13703e-05
2 *625:Y 2.05705e-05
3 *122:2 3.45596e-05
4 *122:3 3.45596e-05
5 *122:4 3.614e-05
6 *122:5 3.614e-05
7 *122:6 2.42196e-05
8 *122:7 6.65197705e-05
9 *122:8 2.82106e-05
10 *122:9 6.65197705e-05
11 *122:10 3.59796e-05
12 *122:11 4.49697e-05

*RES
1 *122:11 *625:Y 1.22691
2 *122:10 *122:11 2.29447
3 *122:8 *122:10 0.613453
4 *122:9 *122:8 8.76079178
5 *122:7 *122:9 3.21044
6 *122:4 *122:7 8.76079178
7 *122:5 *122:4 1.4158
8 *122:2 *122:5 8.76079178
9 *122:3 *122:2 1.60522
10 *122:6 *691:A 0.613453
11 *122:6 *122:3 8.76079178
*END

*D_NET *123 0.00170757

*CONN
*I *695:A I *C 1779.1 819.375 *L 0.000801 *D INVX2
*I *626:Y O *C 1781.335 831.62 *L 0 *D BUFX2

*CAP
1 *695:A 3.49079e-05
2 *626:Y 2.26663e-05
3 *123:2 0.000524507
4 *123:3 0.00052919
5 *123:4 5.87935e-05
6 *123:5 5.87935e-05
7 *123:6 3.03213e-05
8 *123:7 3.03213e-05
9 *123:8 4.77551e-05
10 *123:9 6.9299e-05
11 *123:10 2.25613e-05
12 *123:11 6.9299e-05
13 *123:12 3.52874e-05
14 *123:13 6.73206e-05
15 *123:14 6.92909e-05
16 *123:15 3.72577e-05

*RES
1 *123:4 *626:Y 8.76086
2 *123:5 *123:4 2.93251
3 *123:15 *123:5 8.76086
4 *123:14 *123:15 1.21679
5 *123:13 *123:14 2.43357
6 *123:12 *123:13 1.21679
7 *123:2 *123:12 8.76086
8 *123:3 *123:2 36.4124603
9 *123:10 *123:3 1.07344
10 *123:11 *123:10 8.76086
11 *123:9 *123:11 3.51034
12 *123:6 *123:9 8.76086
13 *123:7 *123:6 1.46625
14 *123:8 *695:A 1.83962
15 *123:8 *123:7 8.76086
*END

*D_NET *124 0.00159751

*CONN
*I *697:A I *C 1777.1 1004.055 *L 0.000801 *D INVX2
*I *627:Y O *C 1777.735 1019.72 *L 0 *D BUFX2

*CAP
1 *697:A 2.26669e-05
2 *627:Y 2.26669e-05
3 *124:2 0.000200218
4 *124:3 0.000204895
5 *124:4 0.000339152
6 *124:5 0.00035276
7 *124:6 0.000236718
8 *124:7 0.000218428

*RES
1 *124:7 *627:Y 8.76066
2 *124:6 *124:7 14.9107
3 *124:5 *124:6 2.14263
4 *124:4 *124:5 24.0567589
5 *124:3 *124:4 1.07113
6 *124:2 *124:3 13.3466
7 *697:A *124:2 8.76066
*END

*D_NET *125 0.00024086

*CONN
*I *717:A I *C 1780.5 1135.345 *L 0.000801 *D INVX2
*I *628:Y O *C 1780.735 1136.78 *L 0 *D BUFX2

*CAP
1 *717:A 2.26702e-05
2 *628:Y 2.26702e-05
3 *125:2 4.513e-05
4 *125:3 4.98104e-05
5 *125:4 5.263e-05
6 *125:5 4.79496e-05

*RES
1 *125:5 *628:Y 8.76079178
2 *125:4 *125:5 2.69096
3 *125:3 *125:4 1.07104
4 *125:2 *125:3 2.69096
5 *717:A *125:2 8.76079178
*END

*D_NET *126 0.000343638

*CONN
*I *757:A I *C 1571.1851 1383.525 *L 0.00161 *D INVX4
*I *629:Y O *C 1571.735 1385.66 *L 0 *D BUFX2

*CAP
1 *757:A 2.26699e-05
2 *629:Y 2.26699e-05
3 *126:2 3.02193e-05
4 *126:3 0.000102969
5 *126:4 0.00011893
6 *126:5 4.61801e-05

*RES
1 *126:5 *629:Y 8.76079178
2 *126:4 *126:5 2.69029
3 *126:3 *126:4 6.47809
4 *126:2 *126:3 1.68142
5 *757:A *126:2 8.76079178
*END

*D_NET *127 0.00022037

*CONN
*I *741:A I *C 1638.785 1448.505 *L 0.00161 *D INVX4
*I *630:Y O *C 1639.335 1448 *L 0 *D BUFX2

*CAP
1 *741:A 2.26698e-05
2 *630:Y 2.26698e-05
3 *127:2 6.805e-05
4 *127:3 6.805e-05
5 *127:6 1.05198e-05
6 *127:7 1.05198e-05
7 *127:8 1.78902e-05

*RES
1 *127:5 *127:8 1.02184
2 *127:8 *630:Y 8.76079178
3 *127:2 *127:8 8.76079178
4 *127:7 *741:A 8.76079178
5 *127:3 *127:2 4.26543
6 *127:6 *127:7 0.124455
7 *127:6 *127:3 8.76079178
8 *127:4 *127:6 0.838034
*END

*D_NET *128 0.00019584

*CONN
*I *689:A I *C 586.785 641.385 *L 0.00161 *D INVX4
*I *631:Y O *C 585.335 640.88 *L 0 *D BUFX2

*CAP
1 *689:A 2.267e-05
2 *631:Y 2.267e-05
3 *128:2 6.34e-05
4 *128:3 2.079e-05
5 *128:4 6.631e-05

*RES
1 *128:3 *689:A 8.76079178
2 *128:3 *128:4 1.09243
3 *128:2 *128:4 4.31877
4 *631:Y *128:2 8.76079178
*END

*D_NET *129 0.000197661

*CONN
*I *653:A I *C 1014.985 335.215 *L 0.00161 *D INVX4
*I *632:Y O *C 1013.535 335.72 *L 0 *D BUFX2

*CAP
1 *653:A 2.26703e-05
2 *632:Y 2.26703e-05
3 *129:2 6.34002e-05
4 *129:3 6.722e-05
5 *129:4 2.17e-05

*RES
1 *129:4 *653:A 8.76079178
2 *129:3 *129:4 1.00888
3 *129:2 *129:3 4.31877
4 *632:Y *129:2 8.76079178
*END

*D_NET *130 0.000275321

*CONN
*I *745:A I *C 1137.385 952.605 *L 0.00161 *D INVX4
*I *633:Y O *C 1138.135 952.1 *L 0 *D BUFX2

*CAP
1 *745:A 2.26701e-05
2 *633:Y 1.97801e-05
3 *130:2 6.464e-05
4 *130:3 1.91203e-05
5 *130:4 2.27599e-05
6 *130:5 6.34002e-05
7 *130:6 2.65405e-05
8 *130:7 3.64099e-05

*RES
1 *130:7 *633:Y 1.20284
2 *130:6 *130:7 1.52795
3 *130:4 *130:6 0.59915
4 *130:3 *745:A 8.76079178
5 *130:5 *130:4 8.76079178
6 *130:2 *130:3 0.799802
7 *130:2 *130:5 4.31877
*END

*D_NET *131 0.000266362

*CONN
*I *657:A I *C 895.185 707.995 *L 0.00161 *D INVX4
*I *634:Y O *C 893.335 708.5 *L 0 *D BUFX2

*CAP
1 *657:A 9.91056e-06
2 *634:Y 2.26696e-05
3 *131:2 6.30405e-05
4 *131:3 1.75202e-05
5 *131:4 7.106e-05
6 *131:5 2.27607e-05
7 *131:6 2.55397e-05
8 *131:7 1.69304e-05
9 *131:8 1.69304e-05

*RES
1 *131:8 *657:A 0.601422
2 *131:7 *131:8 0.645135
3 *131:5 *131:7 0.59915
4 *131:6 *131:5 8.76079178
5 *131:4 *131:6 1.50683
6 *131:3 *634:Y 8.76079178
7 *131:2 *131:4 4.31877
8 *131:2 *131:3 0.675347
*END

*D_NET *132 0.000282421

*CONN
*I *778:A I *C 1329.1851 583.245 *L 0.00161 *D INVX4
*I *635:Y O *C 1327.735 582.74 *L 0 *D BUFX2

*CAP
1 *778:A 2.26705e-05
2 *635:Y 2.26705e-05
3 *132:2 7.18201e-05
4 *132:3 2.63004e-05
5 *132:4 9.224e-05
6 *132:5 4.67203e-05

*RES
1 *132:5 *778:A 8.76079178
2 *132:4 *132:5 2.82584
3 *132:3 *635:Y 8.76079178
4 *132:2 *132:4 4.31877
5 *132:2 *132:3 1.35631
*END

*D_NET *133 0.000261691

*CONN
*I *776:A I *C 1328.585 646.435 *L 0.00161 *D INVX4
*I *636:Y O *C 1327.135 646.94 *L 0 *D BUFX2

*CAP
1 *776:A 2.26704e-05
2 *636:Y 1.98002e-05
3 *133:2 4.671e-05
4 *133:3 4.671e-05
5 *133:5 3.643e-05
6 *133:6 3.32604e-05
7 *133:7 1.789e-05
8 *133:8 1.91102e-05
9 *133:9 1.91102e-05

*RES
1 *133:8 *776:A 8.76079178
2 *133:8 *133:9 0.799802
3 *133:2 *133:9 8.76079178
4 *133:5 *636:Y 1.20284
5 *133:3 *133:2 5.02861
6 *133:5 *133:6 1.52795
7 *133:7 *133:3 8.76079178
8 *133:7 *133:6 8.76079178
9 *133:4 *133:7 1.02184
*END

*D_NET *134 0.00025418

*CONN
*I *888:A I *C 253.1 461.605 *L 0.00241 *D CLKINVX6
*I *637:Y O *C 251.735 462.26 *L 0 *D BUFX2

*CAP
1 *888:A 3.69305e-05
2 *637:Y 2.26698e-05
3 *134:2 1.79394e-05
4 *134:3 6.34600146e-05
5 *134:4 6.34e-05
6 *134:5 4.97793e-05

*RES
1 *134:5 *888:A 1.81255
2 *134:2 *134:5 8.76079178
3 *134:3 *134:2 0.675881
4 *134:4 *134:3 4.30393
5 *637:Y *134:4 8.76079178
*END

*D_NET *135 0.000216311

*CONN
*I *788:A I *C 953.585 333.585 *L 0.00161 *D INVX4
*I *638:Y O *C 952.135 333.08 *L 0 *D BUFX2

*CAP
1 *788:A 2.26704e-05
2 *638:Y 2.26704e-05
3 *135:3 1.78899e-05
4 *135:4 5.163e-05
5 *135:5 2.49102e-05
6 *135:6 2.49102e-05
7 *135:7 5.163e-05

*RES
1 *135:5 *788:A 8.76079178
2 *135:5 *135:6 1.10098
3 *135:7 *135:6 8.76079178
4 *135:4 *135:7 2.84362
5 *135:3 *135:4 8.76079178
6 *135:3 *638:Y 8.76079178
7 *135:2 *135:3 1.02184
*END

*D_NET *136 0.000317122

*CONN
*I *709:A I *C 1780.985 1263.825 *L 0.00161 *D INVX4
*I *639:Y O *C 1781.135 1265.96 *L 0 *D BUFX2

*CAP
1 *709:A 2.26702e-05
2 *639:Y 2.26702e-05
3 *136:2 3.56807e-05
4 *136:3 3.56807e-05
5 *136:4 4.68105e-05
6 *136:5 4.68105e-05
7 *136:6 5.34e-05
8 *136:7 5.34e-05

*RES
1 *136:4 *639:Y 8.76079178
2 *136:5 *136:4 2.68949
3 *136:7 *136:5 8.76079178
4 *136:6 *136:7 2.80552
5 *136:2 *136:6 8.76079178
6 *136:3 *136:2 1.82753
7 *709:A *136:3 8.76079178
*END

*D_NET *137 0.000346332

*CONN
*I *705:A I *C 1781.385 1198.845 *L 0.00161 *D INVX4
*I *640:Y O *C 1781.735 1197.5601 *L 0 *D BUFX2

*CAP
1 *705:A 2.26699e-05
2 *640:Y 2.26699e-05
3 *137:2 7.62703711e-05
4 *137:3 7.62703711e-05
5 *137:5 6.52805e-05
6 *137:6 1.78901e-05
7 *137:7 6.52805e-05

*RES
1 *137:2 *705:A 8.76079178
2 *137:3 *137:2 4.87461
3 *137:5 *137:3 8.76079178
4 *137:5 *137:7 3.51028
5 *137:6 *137:7 8.76079178
6 *137:6 *640:Y 8.76079178
7 *137:4 *137:6 1.01489
*END

*D_NET *138 0.00077914

*CONN
*I *721:A I *C 1782.385 1079.145 *L 0.00161 *D INVX4
*I *641:Y O *C 1781.9351 1082.0601 *L 0 *D BUFX2

*CAP
1 *721:A 9.84845e-06
2 *641:Y 1.96501e-05
3 *138:2 7.20617e-05
4 *138:3 0.00021886
5 *138:4 7.23923e-05
6 *138:5 0.00021886
7 *138:6 1.68716e-05
8 *138:7 6.62307e-05
9 *138:8 6.21297e-05
10 *138:9 2.22417e-05

*RES
1 *138:9 *641:Y 1.22565
2 *138:8 *138:9 0.24304
3 *138:4 *138:8 3.06432
4 *138:6 *721:A 0.612825
5 *138:5 *138:4 8.76084
6 *138:6 *138:7 0.659761
7 *138:3 *138:5 12.4533701
8 *138:2 *138:7 3.06432
9 *138:2 *138:3 8.76084
*END

*D_NET *139 0.00046646

*CONN
*I *729:A I *C 766.9 337.155 *L 0.00241 *D CLKINVX6
*I *642:Y O *C 765.735 335.72 *L 0 *D BUFX2

*CAP
1 *729:A 1.96705e-05
2 *642:Y 2.26698e-05
3 *139:2 8.425e-05
4 *139:3 8.425e-05
5 *139:4 6.33993e-05
6 *139:5 7.15498e-05
7 *139:6 3.0711e-05
8 *139:7 3.10607e-05
9 *139:8 3.25198e-05
10 *139:9 2.638e-05

*RES
1 *139:8 *729:A 1.19843
2 *139:9 *139:8 8.76079178
3 *139:7 *139:9 1.34789
4 *139:7 *139:2 1.07973
5 *139:3 *139:2 5.39181
6 *139:6 *139:3 1.07973
7 *139:5 *139:6 1.34575
8 *139:4 *139:5 4.31877
9 *642:Y *139:4 8.76079178
*END

*D_NET *140 0.00023838

*CONN
*I *733:A I *C 1206.5 1079.295 *L 0.00241 *D CLKINVX6
*I *643:Y O *C 1205.135 1078.64 *L 0 *D BUFX2

*CAP
1 *733:A 2.95102e-05
2 *643:Y 2.26696e-05
3 *140:2 6.34e-05
4 *140:3 4.23595e-05
5 *140:4 1.746e-05
6 *140:5 6.29801e-05

*RES
1 *140:3 *733:A 1.79772
2 *140:4 *140:3 8.76079178
3 *140:4 *140:5 0.672539
4 *140:2 *140:5 4.31877
5 *643:Y *140:2 8.76079178
*END

*D_NET *141 0.000273939

*CONN
*I *737:A I *C 1205.9 1019.065 *L 0.00241 *D CLKINVX6
*I *644:Y O *C 1204.535 1019.72 *L 0 *D BUFX2

*CAP
1 *737:A 2.97094e-05
2 *644:Y 2.26708e-05
3 *141:2 6.346e-05
4 *141:3 1.79394e-05
5 *141:4 7.156e-05
6 *141:5 4.25604e-05
7 *141:6 2.60394e-05

*RES
1 *141:5 *737:A 1.79758
2 *141:6 *141:5 8.76079178
3 *141:4 *141:6 1.34789
4 *141:3 *644:Y 8.76079178
5 *141:2 *141:4 4.31877
6 *141:2 *141:3 0.678154
*END

*D_NET *142 0.00023838

*CONN
*I *665:A I *C 952.3 248.235 *L 0.00241 *D CLKINVX6
*I *645:Y O *C 950.935 247.58 *L 0 *D BUFX2

*CAP
1 *665:A 2.95102e-05
2 *645:Y 2.26696e-05
3 *142:2 6.34e-05
4 *142:3 4.23595e-05
5 *142:4 1.746e-05
6 *142:5 6.29801e-05

*RES
1 *142:3 *665:A 1.8818
2 *142:4 *142:3 8.76079178
3 *142:4 *142:5 0.694329
4 *142:2 *142:5 4.45833
5 *645:Y *142:2 8.76079178
*END

*D_NET *143 0.0312787

*CONN
*I *996:B0 I *C 1134.7 330.125 *L 0.000212 *D AOI21XL
*I *646:Y O *C 826.165 330.455 *L 0 *D CLKINVX6

*CAP
1 *996:B0 2.27295e-05
2 *646:Y 2.27295e-05
3 *143:2 3.58161e-05
4 *143:3 3.58161e-05
5 *143:4 0.01504622
6 *143:6 0.00676994
7 *143:7 1.79081e-05
8 *143:8 0.00829396
9 *143:8 *347:5 0.00030932
10 *143:4 *347:6 0.00030932
11 *143:4 *347:6 0.00020754
12 *143:6 *347:7 0.000207540019

*RES
1 *143:2 *646:Y 8.76517
2 *143:3 *143:2 2.02897
3 *143:6 *143:3 8.76517
4 *143:4 *143:8 590.98175
5 *143:6 *143:4 505.485
6 *143:7 *996:B0 8.76517
7 *143:7 *143:8 8.76517
8 *143:5 *143:7 1.019
*END

*D_NET *144 0.030326

*CONN
*I *647:Y O *C 516.165 330.455 *L 0 *D CLKINVX6
*I *646:A I *C 825.3 330.315 *L 0.00241 *D CLKINVX6

*CAP
1 *647:Y 2.26281e-05
2 *646:A 2.95734e-05
3 *144:2 0.0112475
4 *144:3 0.0146825
5 *144:5 1.79232e-05
6 *144:6 0.000406634
7 *144:7 1.76992e-05
8 *144:8 0.00384162
9 *144:9 4.23437e-05
10 *144:10 1.76992e-05

*RES
1 *144:9 *646:A 1.8005
2 *144:10 *144:9 8.76243
3 *144:7 *144:10 0.672187
4 *144:8 *144:7 8.76243
5 *144:3 *144:8 277.649
6 *144:2 *144:3 786.650574
7 *144:6 *144:2 28.832
8 *144:5 *144:6 8.76243
9 *144:5 *647:Y 8.76243
10 *144:4 *144:5 1.02028
*END

*D_NET *145 0.0321347

*CONN
*I *1019:A I *C 249.1 273.505 *L 0.000212 *D INVXL
*I *648:Y O *C 251.965 330.455 *L 0 *D CLKINVX6
*I *647:A I *C 515.3 330.315 *L 0.00241 *D CLKINVX6

*CAP
1 *1019:A 2.2765e-05
2 *648:Y 4.53303e-05
3 *647:A 9.84486e-05
4 *145:3 0.01308688
5 *145:4 0.00226592
6 *145:5 7.32873e-05
7 *145:6 0.00226592
8 *145:7 7.44855e-05
9 *145:8 4.67282e-05
10 *145:9 4.553e-05
11 *145:10 0.000372627
12 *145:11 0.00037742
13 *145:12 3.0553e-05
14 *145:13 2.59601e-05
15 *145:14 1.73733e-05
16 *145:15 1.73733e-05
17 *145:16 0.011183
18 *145:17 0.000111229
19 *145:18 2.59601e-05
20 *145:19 2.59601e-05
21 *145:20 0.00192185

*RES
1 *145:17 *647:A 5.98966
2 *145:18 *145:17 8.76243
3 *145:18 *145:19 1.34437
4 *145:20 *145:19 8.76243
5 *145:3 *145:20 138.687
6 *145:16 *145:3 786.650574
7 *145:15 *145:16 8.76243
8 *145:14 *145:15 0.672187
9 *648:Y *145:14 8.76243
10 *145:13 *648:Y 8.76243
11 *145:12 *145:13 1.34437
12 *145:11 *145:12 1.0803
13 *145:10 *145:11 26.1313
14 *145:9 *145:10 8.76243
15 *145:8 *145:9 1.8005
16 *145:7 *145:8 1.29636
17 *145:5 *145:7 3.56499
18 *145:6 *145:5 8.76243
19 *145:4 *145:6 177.229
20 *1019:A *145:4 8.76243
*END

*D_NET *146 0.0236076

*CONN
*I *649:Y O *C 251.215 578.33 *L 0 *D CLKINVX4
*I *648:A I *C 251.1 330.315 *L 0.00241 *D CLKINVX6

*CAP
1 *649:Y 2.26968e-05
2 *648:A 2.26968e-05
3 *146:2 0.00845134
4 *146:3 0.00845134
5 *146:4 0.000599402
6 *146:5 0.00058109
7 *146:6 0.000230063
8 *146:7 0.000230063
9 *146:8 0.000142629
10 *146:9 0.000142629
11 *146:10 0.000106133
12 *146:11 0.000110905
13 *146:12 0.00153642
14 *146:13 0.00153642
15 *146:14 4.52647e-05
16 *146:15 5.90633e-05
17 *146:16 0.000200532
18 *146:17 0.000200532
19 *146:13 *498:2 0.00025664
20 *146:12 *498:3 0.00025664
21 *146:2 *498:4 3.859e-05
22 *146:3 *498:5 3.859e-05
23 *146:7 *498:2 9.42e-06
24 *146:6 *498:3 9.42e-06
25 *146:7 *498:4 8.24e-06
26 *146:6 *498:5 8.24e-06
27 *146:13 *498:6 8.4e-06
28 *146:12 *498:7 8.40001646e-06
29 *146:2 *405:2 0.00014536
30 *146:3 *405:3 0.00014536
31 *146:2 *405:4 1.21e-06
32 *146:3 *405:5 1.21e-06
33 *146:2 *405:6 1.52e-06
34 *146:3 *405:7 1.52000397e-06

*RES
1 *146:10 *648:A 8.7624
2 *146:10 *146:11 13.6537
3 *146:11 *146:16 1.0803
4 *146:16 *146:17 12.7835
5 *146:3 *146:17 1.0803
6 *146:3 *146:2 655.539551
7 *146:6 *146:2 1.0803
8 *146:6 *146:7 16.2244
9 *146:7 *146:12 1.0803
10 *146:12 *146:13 133.977
11 *146:8 *146:13 1.0803
12 *146:8 *146:9 8.11222
13 *146:9 *146:14 1.0803
14 *146:14 *146:15 2.1906
15 *146:5 *649:Y 8.7624
16 *146:4 *146:15 2.15059
17 *146:4 *146:5 40.5611
*END

*D_NET *147 0.0220138

*CONN
*I *961:D I *C 1777.1 333.735 *L 0.000212 *D NAND4XL
*I *650:Y O *C 1554.55 335.335 *L 0 *D INVX4

*CAP
1 *961:D 2.27479e-05
2 *650:Y 2.27479e-05
3 *147:2 1.79326e-05
4 *147:3 1.79326e-05
5 *147:4 7.57155e-05
6 *147:5 7.57155e-05
7 *147:6 0.01088161
8 *147:7 0.0108692
9 *147:8 3.02198e-05

*RES
1 *147:5 *961:D 8.7591
2 *147:5 *147:4 4.37955
3 *147:8 *147:4 8.7591
4 *147:6 *147:8 1.3246
5 *147:7 *147:6 782.065491
6 *147:2 *650:Y 8.7591
7 *147:3 *147:7 8.7591
8 *147:3 *147:2 0.680202
*END

*D_NET *148 0.0220306

*CONN
*I *651:Y O *C 1329.15 335.335 *L 0 *D INVX4
*I *650:A I *C 1554.385 335.215 *L 0.00161 *D INVX4

*CAP
1 *651:Y 0.000148533
2 *650:A 9.97727e-06
3 *148:2 0.01054614
4 *148:5 0.000161407
5 *148:6 1.78625e-05
6 *148:7 0.00395551
7 *148:8 0.000280168
8 *148:9 1.78625e-05
9 *148:10 0.0066085
10 *148:11 1.36785e-05
11 *148:12 0.000270996

*RES
1 *148:11 *650:A 0.598691
2 *148:11 *148:12 0.343152
3 *148:8 *148:12 16.1793
4 *148:9 *148:8 8.76133
5 *148:4 *148:9 1.02216
6 *148:10 *148:9 8.76133
7 *148:2 *148:10 478.485443
8 *148:7 *148:2 286.138
9 *651:Y *148:5 8.98766
10 *148:6 *148:7 8.76133
11 *148:6 *148:5 8.76133
12 *148:3 *148:6 1.02216
*END

*D_NET *149 0.00893448

*CONN
*I *652:Y O *C 1238.53 335.2 *L 0 *D INVX2
*I *651:A I *C 1328.985 335.215 *L 0.00161 *D INVX4

*CAP
1 *652:Y 2.26564e-05
2 *651:A 9.8897e-06
3 *149:4 1.78614e-05
4 *149:5 0.000301906
5 *149:6 0.00392801
6 *149:7 0.000305862
7 *149:8 0.000200971
8 *149:9 1.78614e-05
9 *149:10 0.00392399
10 *149:11 1.36058e-05
11 *149:12 0.00019186

*RES
1 *149:11 *651:A 0.600648
2 *149:11 *149:12 0.341375
3 *149:8 *149:12 11.3864
4 *149:9 *149:8 8.75908
5 *149:3 *149:9 1.0198
6 *149:10 *149:9 8.75908
7 *149:6 *149:10 283.194489
8 *149:6 *149:7 1.02413
9 *149:5 *149:7 21.2387
10 *149:4 *149:5 8.75908
11 *149:4 *652:Y 8.75908
12 *149:2 *149:4 1.0198
*END

*D_NET *150 0.023017

*CONN
*I *653:Y O *C 1015.15 335.335 *L 0 *D INVX4
*I *652:A I *C 1238.1 335.065 *L 0.000801 *D INVX2

*CAP
1 *653:Y 0.000296951
2 *652:A 2.26616e-05
3 *150:2 0.01100094
4 *150:3 0.0109969
5 *150:6 0.000309876
6 *150:7 1.79614e-05
7 *150:8 0.000178943
8 *150:9 1.79614e-05
9 *150:10 0.000174914

*RES
1 *150:9 *652:A 8.75912
2 *150:5 *150:9 1.01958
3 *150:10 *150:9 8.75912
4 *150:8 *150:10 12.038
5 *150:8 *150:2 1.03117
6 *150:3 *150:2 759.309448
7 *653:Y *150:6 17.9817
8 *150:7 *150:3 8.75912
9 *150:7 *150:6 8.75912
10 *150:4 *150:7 1.01958
*END

*D_NET *151 0.0217557

*CONN
*I *959:D I *C 1778.9 707.845 *L 0.000212 *D NAND4XL
*I *654:Y O *C 1558.35 708.115 *L 0 *D INVX4

*CAP
1 *959:D 2.26849e-05
2 *654:Y 2.98236e-05
3 *151:2 0.01039621
4 *151:3 0.01039621
5 *151:6 4.26731e-05
6 *151:7 1.79259e-05
7 *151:8 1.79259e-05
8 *151:2 *286:6 0.00041622
9 *151:3 *286:3 0.000416220009

*RES
1 *151:8 *959:D 8.76202
2 *151:5 *151:8 1.02105
3 *151:2 *151:8 8.76202
4 *151:3 *151:2 778.085938
5 *654:Y *151:6 1.79277
6 *151:7 *151:3 8.76202
7 *151:7 *151:6 8.76202
8 *151:4 *151:7 1.02105
*END

*D_NET *152 0.0216324

*CONN
*I *655:Y O *C 1337.15 708.115 *L 0 *D INVX4
*I *654:A I *C 1558.1851 707.995 *L 0.00161 *D INVX4

*CAP
1 *655:Y 0.000376288
2 *654:A 9.93854e-06
3 *152:2 0.01002034
4 *152:5 0.000389132
5 *152:6 1.78894e-05
6 *152:7 0.00334027
7 *152:8 0.000379193
8 *152:9 1.78894e-05
9 *152:10 0.00669781
10 *152:11 1.36082e-05
11 *152:12 0.000370019

*RES
1 *152:11 *654:A 0.599265
2 *152:11 *152:12 0.340323
3 *152:8 *152:12 22.1728
4 *152:9 *152:8 8.75963
5 *152:4 *152:9 1.02097
6 *152:10 *152:9 8.75963
7 *152:2 *152:10 484.8573
8 *152:7 *152:2 241.533
9 *655:Y *152:5 22.7721
10 *152:6 *152:7 8.75963
11 *152:6 *152:5 8.75963
12 *152:3 *152:6 1.02097
*END

*D_NET *153 0.0217462

*CONN
*I *656:Y O *C 1115.75 708.115 *L 0 *D INVX4
*I *655:A I *C 1336.985 707.995 *L 0.00161 *D INVX4

*CAP
1 *656:Y 0.000346504
2 *655:A 2.25668e-05
3 *153:2 0.01048875
4 *153:3 0.01048875
5 *153:6 0.000359308
6 *153:7 1.77653e-05
7 *153:8 1.12034e-05
8 *153:9 1.12034e-05

*RES
1 *153:8 *655:A 8.76378
2 *153:5 *153:8 0.764081
3 *153:8 *153:9 0.173655
4 *153:2 *153:9 8.76378
5 *153:3 *153:2 758.709656
6 *656:Y *153:6 20.9775
7 *153:7 *153:3 8.76378
8 *153:7 *153:6 8.76378
9 *153:4 *153:7 1.01878
*END

*D_NET *154 0.0217348

*CONN
*I *657:Y O *C 895.35 708.115 *L 0 *D INVX4
*I *656:A I *C 1115.585 707.995 *L 0.00161 *D INVX4

*CAP
1 *657:Y 0.000306884
2 *656:A 2.27035e-05
3 *154:2 0.00698573
4 *154:3 0.0101216
5 *154:4 0.00315378
6 *154:7 0.000319857
7 *154:8 1.77613e-05
8 *154:9 1.12745e-05
9 *154:10 1.12745e-05
10 *154:2 *445:10 1.029e-05
11 *154:3 *445:9 1.029e-05
12 *154:2 *445:8 0.00024065
13 *154:3 *445:4 0.00024065
14 *154:3 *445:4 0.00014102
15 *154:4 *445:7 0.000141019996

*RES
1 *154:9 *656:A 8.75873
2 *154:6 *154:9 0.762319
3 *154:9 *154:10 0.174698
4 *154:2 *154:10 8.75873
5 *154:3 *154:2 520.409668
6 *154:4 *154:3 238.106
7 *657:Y *154:7 18.5736
8 *154:8 *154:4 8.75873
9 *154:8 *154:7 8.75873
10 *154:5 *154:8 1.02437
*END

*D_NET *155 0.0316029

*CONN
*I *957:D I *C 1776.3 579.975 *L 0.000212 *D NAND4XL
*I *658:Y O *C 1473.365 583.535 *L 0 *D CLKINVX6

*CAP
1 *957:D 2.27503e-05
2 *658:Y 2.27503e-05
3 *155:2 0.01476177
4 *155:3 0.0111024
5 *155:4 0.00367721
6 *155:6 0.000183128
7 *155:7 0.000183128
8 *155:8 1.77948e-05
9 *155:4 *274:2 0.00015363
10 *155:2 *274:3 0.00015363
11 *155:2 *274:2 0.00025211
12 *155:3 *274:3 0.000252109996
13 *155:4 *227:6 0.00016949
14 *155:2 *227:4 0.00016949
15 *155:2 *227:6 0.00024081
16 *155:3 *227:4 0.000240810006

*RES
1 *155:7 *658:Y 8.76004
2 *155:6 *155:7 12.1052
3 *155:3 *155:6 8.76004
4 *155:2 *155:4 287.673
5 *155:3 *155:2 788.596191
6 *155:8 *957:D 8.76004
7 *155:8 *155:4 8.76004
8 *155:5 *155:8 1.01077
*END

*D_NET *156 0.030735

*CONN
*I *659:Y O *C 1165.765 583.535 *L 0 *D CLKINVX6
*I *658:A I *C 1472.5 583.395 *L 0.00241 *D CLKINVX6

*CAP
1 *659:Y 2.27242e-05
2 *658:A 2.94666e-05
3 *156:2 9.13963e-05
4 *156:3 9.13963e-05
5 *156:4 0.00818259
6 *156:5 0.00817859
7 *156:6 0.0070108
8 *156:8 1.78547e-05
9 *156:9 0.00413468
10 *156:10 1.74802e-05
11 *156:11 0.00289796
12 *156:12 4.2327e-05
13 *156:13 1.74802e-05

*RES
1 *156:12 *658:A 1.79964
2 *156:13 *156:12 8.76234
3 *156:10 *156:13 0.672682
4 *156:11 *156:10 8.76234
5 *156:6 *156:11 209.597
6 *156:9 *156:6 301.729
7 *156:9 *156:2 1.02213
8 *156:3 *156:2 5.67849
9 *156:4 *156:3 1.02213
10 *156:5 *156:4 572.531311
11 *156:8 *156:5 8.76234
12 *156:8 *659:Y 8.76234
13 *156:7 *156:8 1.02213
*END

*D_NET *157 0.0215348

*CONN
*I *660:Y O *C 945.75 583.125 *L 0 *D INVX4
*I *659:A I *C 1164.9 583.395 *L 0.00241 *D CLKINVX6

*CAP
1 *660:Y 0.000326694
2 *659:A 2.95701e-05
3 *157:2 0.01036298
4 *157:4 0.000339661
5 *157:5 1.78686e-05
6 *157:6 0.000799342
7 *157:7 1.73942e-05
8 *157:8 0.00958151
9 *157:9 4.23786e-05
10 *157:10 1.73942e-05

*RES
1 *157:9 *659:A 1.79806
2 *157:10 *157:9 8.75759
3 *157:7 *157:10 0.676915
4 *157:8 *157:7 8.75759
5 *157:2 *157:8 693.161072
6 *157:6 *157:2 57.3051
7 *660:Y *157:4 19.7786
8 *157:5 *157:6 8.75759
9 *157:5 *157:4 8.75759
10 *157:3 *157:5 1.02595
*END

*D_NET *158 0.01724

*CONN
*I *661:Y O *C 770.13 582.77 *L 0 *D INVX3
*I *660:A I *C 945.585 583.245 *L 0.00161 *D INVX4

*CAP
1 *661:Y 2.27508e-05
2 *660:A 2.27508e-05
3 *158:2 0.0085688
4 *158:3 0.0085688
5 *158:5 1.7913e-05
6 *158:6 1.9482e-05
7 *158:7 1.9482e-05

*RES
1 *158:7 *660:A 8.7635
2 *158:6 *158:7 0.832816
3 *158:2 *158:6 8.7635
4 *158:3 *158:2 620.220825
5 *158:5 *158:3 8.7635
6 *158:5 *661:Y 8.7635
7 *158:4 *158:5 1.02209
*END

*D_NET *159 0.0171295

*CONN
*I *960:D I *C 1778.1 518.415 *L 0.000212 *D NAND4XL
*I *662:Y O *C 1605.73 516.95 *L 0 *D INVX3

*CAP
1 *960:D 2.26572e-05
2 *662:Y 4.95386e-05
3 *159:3 6.23393e-05
4 *159:4 1.79209e-05
5 *159:5 0.00838892
6 *159:6 9.95892e-05
7 *159:7 0.00838892
8 *159:8 9.95892e-05

*RES
1 *159:8 *960:D 8.75731
2 *159:6 *159:8 6.65077
3 *159:7 *159:6 8.75731
4 *159:5 *159:7 602.855896
5 *662:Y *159:3 2.99883
6 *159:4 *159:5 8.75731
7 *159:4 *159:3 8.75731
8 *159:2 *159:4 1.02107
*END

*D_NET *160 0.0307908

*CONN
*I *663:Y O *C 1300.765 516.185 *L 0 *D CLKINVX6
*I *662:A I *C 1605.1 516.325 *L 0.0012 *D INVX3

*CAP
1 *663:Y 2.27706e-05
2 *662:A 2.27706e-05
3 *160:4 1.79888e-05
4 *160:5 0.000418979
5 *160:6 0.000423077
6 *160:7 0.00508239
7 *160:8 0.0149227
8 *160:9 1.79888e-05
9 *160:10 0.00986217

*RES
1 *160:9 *662:A 8.76069
2 *160:3 *160:9 1.01724
3 *160:10 *160:9 8.76069
4 *160:8 *160:10 680.261536
5 *160:7 *160:8 367.555
6 *160:6 *160:7 1.02762
7 *160:5 *160:6 29.7386
8 *160:4 *160:5 8.76069
9 *160:4 *663:Y 8.76069
10 *160:2 *160:4 1.01724
*END

*D_NET *161 0.0311542

*CONN
*I *664:Y O *C 995.365 516.185 *L 0 *D CLKINVX6
*I *663:A I *C 1299.9 516.325 *L 0.00241 *D CLKINVX6

*CAP
1 *664:Y 2.26749e-05
2 *663:A 2.26749e-05
3 *161:4 1.7816e-05
4 *161:5 0.000360485
5 *161:6 0.000364418
6 *161:7 0.0114943
7 *161:8 0.01516326
8 *161:9 1.7816e-05
9 *161:10 0.00369069

*RES
1 *161:9 *663:A 8.76243
2 *161:3 *161:9 1.02028
3 *161:10 *161:9 8.76243
4 *161:8 *161:10 266.834
5 *161:7 *161:8 786.650574
6 *161:6 *161:7 1.02028
7 *161:5 *161:6 25.4831
8 *161:4 *161:5 8.76243
9 *161:4 *664:Y 8.76243
10 *161:2 *161:4 1.02028
*END

*D_NET *162 0.0295626

*CONN
*I *665:Y O *C 953.165 248.375 *L 0 *D CLKINVX6
*I *664:A I *C 994.5 516.325 *L 0.00241 *D CLKINVX6

*CAP
1 *665:Y 2.27137e-05
2 *664:A 2.27137e-05
3 *162:2 0.0092456
4 *162:3 0.0092456
5 *162:4 0.00206949
6 *162:5 0.000794556
7 *162:6 0.00130061
8 *162:7 0.00336388
9 *162:8 0.00336854
10 *162:9 6.70124e-05
11 *162:10 6.22158e-05

*RES
1 *162:10 *664:A 8.76395
2 *162:9 *162:10 4.03288
3 *162:8 *162:9 1.08377
4 *162:7 *162:8 256.26
5 *162:6 *162:7 8.76395
6 *162:4 *162:6 77.9377
7 *162:5 *162:4 47.3003
8 *162:2 *162:5 8.76395
9 *162:3 *162:2 682.942139
10 *665:Y *162:3 8.76395
*END

*D_NET *163 0.0226968

*CONN
*I *962:D I *C 1780.1 398.715 *L 0.000212 *D NAND4XL
*I *666:Y O *C 1693.95 247.965 *L 0 *D INVX4

*CAP
1 *962:D 2.26715e-05
2 *666:Y 2.26715e-05
3 *163:2 0.0059431
4 *163:3 0.00429053
5 *163:4 0.0059431
6 *163:5 0.00429053
7 *163:6 0.000946851
8 *163:7 0.00096517
9 *163:8 2.25808e-05
10 *163:9 0.000131585
11 *163:10 0.000117982

*RES
1 *163:8 *962:D 8.7636
2 *163:8 *163:10 1.07057
3 *163:9 *163:10 8.00871
4 *163:7 *163:9 2.14115
5 *163:6 *163:7 70.1019
6 *163:5 *163:6 8.7636
7 *163:3 *163:5 259.984
8 *163:4 *163:3 8.7636
9 *163:2 *163:4 449.750305
10 *666:Y *163:2 8.7636
*END

*D_NET *164 0.0169709

*CONN
*I *667:Y O *C 1520.33 247.61 *L 0 *D INVX3
*I *666:A I *C 1693.785 248.085 *L 0.00161 *D INVX4

*CAP
1 *667:Y 4.95348e-05
2 *666:A 9.95612e-06
3 *164:4 6.23179e-05
4 *164:5 1.79456e-05
5 *164:6 0.00805524
6 *164:7 0.000349448
7 *164:8 1.79456e-05
8 *164:9 0.00805524
9 *164:10 0.000339983
10 *164:11 1.32748e-05

*RES
1 *164:11 *666:A 0.624885
2 *164:10 *164:11 0.321632
3 *164:7 *164:10 21.3288
4 *164:8 *164:7 8.75759
5 *164:3 *164:8 1.05679
6 *164:9 *164:8 8.75759
7 *164:6 *164:9 602.242493
8 *667:Y *164:4 3.13362
9 *164:5 *164:6 8.75759
10 *164:5 *164:4 8.75759
11 *164:2 *164:5 1.0476
*END

*D_NET *165 0.0169361

*CONN
*I *668:Y O *C 1346.9301 247.61 *L 0 *D INVX3
*I *667:A I *C 1519.7 248.235 *L 0.0012 *D INVX3

*CAP
1 *668:Y 2.26552e-05
2 *667:A 2.26552e-05
3 *165:2 7.22076e-05
4 *165:3 7.22076e-05
5 *165:4 0.00202837
6 *165:5 0.00202432
7 *165:8 1.79314e-05
8 *165:9 0.00111792
9 *165:10 0.00631792
10 *165:11 1.79314e-05
11 *165:12 0.00522189

*RES
1 *165:11 *667:A 8.76361
2 *165:7 *165:11 1.04782
3 *165:12 *165:11 8.76361
4 *165:10 *165:12 390.171265
5 *165:9 *165:10 82.7066
6 *165:2 *165:9 1.05973
7 *165:3 *165:2 5.50107
8 *165:3 *165:4 1.05973
9 *165:5 *165:4 156.644
10 *165:8 *165:5 8.76361
11 *165:8 *668:Y 8.76361
12 *165:6 *165:8 1.05378
*END

*D_NET *166 0.021729

*CONN
*I *669:Y O *C 1130.55 247.965 *L 0 *D INVX4
*I *668:A I *C 1346.3 248.235 *L 0.0012 *D INVX3

*CAP
1 *669:Y 0.000405909
2 *668:A 2.27249e-05
3 *166:2 0.00979788
4 *166:3 0.00979384
5 *166:6 0.000418766
6 *166:7 1.79407e-05
7 *166:8 0.000303946
8 *166:9 1.79407e-05
9 *166:10 0.000300059
10 *166:10 *407:6 1.305e-05
11 *166:8 *407:7 1.305e-05
12 *166:2 *407:8 1.72e-06
13 *166:3 *407:9 1.72e-06
14 *166:2 *407:9 0.00018103
15 *166:3 *407:10 0.00018103
16 *166:2 *407:10 0.00012922
17 *166:3 *407:11 0.000129219993

*RES
1 *166:9 *668:A 8.76085
2 *166:5 *166:9 1.05851
3 *166:10 *166:9 8.76085
4 *166:8 *166:10 22.7467
5 *166:2 *166:8 1.05851
6 *166:3 *166:2 737.983521
7 *669:Y *166:6 25.7195
8 *166:7 *166:3 8.76085
9 *166:7 *166:6 8.76085
10 *166:4 *166:7 1.04725
*END

*D_NET *167 0.0212503

*CONN
*I *670:Y O *C 913.75 247.965 *L 0 *D INVX4
*I *669:A I *C 1130.385 248.085 *L 0.00161 *D INVX4

*CAP
1 *670:Y 0.000287174
2 *669:A 2.26962e-05
3 *167:2 0.0010762
4 *167:3 0.00107219
5 *167:4 0.000465806
6 *167:5 0.000465806
7 *167:8 0.00029999
8 *167:9 1.78899e-05
9 *167:10 0.000891159
10 *167:11 0.00874938
11 *167:12 1.09476e-05
12 *167:13 0.00788012
13 *167:14 1.09476e-05

*RES
1 *167:14 *669:A 8.76468
2 *167:7 *167:12 0.809048
3 *167:12 *167:14 0.16181
4 *167:13 *167:12 8.76468
5 *167:11 *167:13 589.130554
6 *167:10 *167:11 65.7306
7 *167:4 *167:10 1.06075
8 *167:5 *167:4 34.861
9 *167:5 *167:2 1.06075
10 *167:3 *167:2 79.2597
11 *670:Y *167:8 18.1946
12 *167:9 *167:3 8.76468
13 *167:9 *167:8 8.76468
14 *167:6 *167:9 1.05176
*END

*D_NET *168 0.00859289

*CONN
*I *671:Y O *C 827.13 248.1 *L 0 *D INVX2
*I *670:A I *C 913.585 248.085 *L 0.00161 *D INVX4

*CAP
1 *671:Y 2.27035e-05
2 *670:A 9.93005e-06
3 *168:4 1.78916e-05
4 *168:5 0.000313343
5 *168:6 0.000317324
6 *168:7 4.33073e-05
7 *168:8 0.00286681
8 *168:9 4.33073e-05
9 *168:10 0.00286681
10 *168:11 6.37798e-05
11 *168:12 0.000730887
12 *168:13 6.37798e-05
13 *168:14 0.000730887
14 *168:15 0.000160106
15 *168:16 8.21526e-05
16 *168:17 1.78916e-05
17 *168:18 0.000156081
18 *168:19 7.266e-05
19 *168:20 1.32546e-05

*RES
1 *168:20 *670:A 0.626106
2 *168:19 *168:20 0.319644
3 *168:16 *168:19 4.38933
4 *168:17 *168:16 8.76219
5 *168:3 *168:17 1.0512
6 *168:18 *168:17 8.76219
7 *168:15 *168:18 11.0096
8 *168:14 *168:15 1.05779
9 *168:12 *168:14 54.6788
10 *168:12 *168:13 1.05779
11 *168:11 *168:13 4.74852
12 *168:10 *168:11 1.05779
13 *168:8 *168:10 215.960495
14 *168:8 *168:9 1.05779
15 *168:7 *168:9 2.20126
16 *168:6 *168:7 1.05779
17 *168:5 *168:6 22.7507
18 *168:4 *168:5 8.76219
19 *168:4 *671:Y 8.76219
20 *168:2 *168:4 1.05449
*END

*D_NET *169 0.0216634

*CONN
*I *963:D I *C 1778.1 461.605 *L 0.000212 *D NAND4XL
*I *672:Y O *C 1558.9301 459.65 *L 0 *D INVX3

*CAP
1 *963:D 2.27381e-05
2 *672:Y 2.27381e-05
3 *169:2 7.9665e-05
4 *169:3 7.9665e-05
5 *169:5 1.78306e-05
6 *169:6 0.01072042
7 *169:7 0.01072042

*RES
1 *169:2 *963:D 8.76019
2 *169:3 *169:2 5.3456
3 *169:7 *169:3 8.76019
4 *169:6 *169:7 771.650024
5 *169:5 *169:6 8.76019
6 *169:5 *672:Y 8.76019
7 *169:4 *169:5 1.02438
*END

*D_NET *170 0.0216632

*CONN
*I *673:Y O *C 1337.55 460.005 *L 0 *D INVX4
*I *672:A I *C 1558.3 460.275 *L 0.0012 *D INVX3

*CAP
1 *673:Y 2.27041e-05
2 *672:A 2.27041e-05
3 *170:2 0.010782
4 *170:5 1.7933e-05
5 *170:6 0.00369189
6 *170:7 1.7933e-05
7 *170:8 0.00710804

*RES
1 *170:7 *672:A 8.7629
2 *170:4 *170:7 1.02077
3 *170:8 *170:7 8.7629
4 *170:2 *170:8 514.592712
5 *170:6 *170:2 267.025
6 *170:5 *170:6 8.7629
7 *170:5 *673:Y 8.7629
8 *170:3 *170:5 1.02077
*END

*D_NET *171 0.0216713

*CONN
*I *674:Y O *C 1116.15 460.005 *L 0 *D INVX4
*I *673:A I *C 1337.385 460.125 *L 0.00161 *D INVX4

*CAP
1 *674:Y 0.000336659
2 *673:A 2.26674e-05
3 *171:4 0.000349429
4 *171:5 1.78785e-05
5 *171:6 0.01046132
6 *171:7 1.10144e-05
7 *171:8 0.01046132
8 *171:9 1.10144e-05

*RES
1 *171:9 *673:A 8.76525
2 *171:3 *171:7 0.785293
3 *171:7 *171:9 0.161678
4 *171:8 *171:7 8.76525
5 *171:6 *171:8 756.83728
6 *674:Y *171:4 20.3714
7 *171:5 *171:6 8.76525
8 *171:5 *171:4 8.76525
9 *171:2 *171:5 1.01626
*END

*D_NET *172 0.0217391

*CONN
*I *675:Y O *C 894.55 460.005 *L 0 *D INVX4
*I *674:A I *C 1115.985 460.125 *L 0.00161 *D INVX4

*CAP
1 *675:Y 0.00032673
2 *674:A 2.2743e-05
3 *172:2 0.0104962
4 *172:5 0.000339543
5 *172:6 1.79381e-05
6 *172:7 0.00329917
7 *172:8 1.0891e-05
8 *172:9 0.00721497
9 *172:10 1.0891e-05

*RES
1 *172:10 *674:A 8.76272
2 *172:4 *172:8 0.785076
3 *172:8 *172:10 0.158601
4 *172:9 *172:8 8.76272
5 *172:2 *172:9 519.704407
6 *172:7 *172:2 238.552
7 *675:Y *172:5 19.7776
8 *172:6 *172:7 8.76272
9 *172:6 *172:5 8.76272
10 *172:3 *172:6 1.02298
*END

*D_NET *173 0.00992994

*CONN
*I *676:Y O *C 894.33 354.12 *L 0 *D INVX2
*I *675:A I *C 894.385 460.125 *L 0.00161 *D INVX4

*CAP
1 *676:Y 2.26827e-05
2 *675:A 2.26827e-05
3 *173:2 0.000344115
4 *173:3 0.000325799
5 *173:4 0.00459817
6 *173:5 0.00461649

*RES
1 *173:4 *676:Y 8.75905
2 *173:3 *675:A 8.75905
3 *173:4 *173:5 351.090393
4 *173:2 *173:3 23.0253
5 *173:2 *173:5 2.15896
*END

*D_NET *174 0.00979099

*CONN
*I *677:Y O *C 893.93 249.7 *L 0 *D INVX2
*I *676:A I *C 893.9 354.255 *L 0.000801 *D INVX2

*CAP
1 *677:Y 2.2686e-05
2 *676:A 2.2686e-05
3 *174:2 0.00456986
4 *174:3 0.00457454
5 *174:4 0.000302945
6 *174:5 0.000298268

*RES
1 *174:5 *676:A 8.76025
2 *174:4 *174:5 20.8512
3 *174:3 *174:4 1.07851
4 *174:2 *174:3 346.476471
5 *677:Y *174:2 8.76025
*END

*D_NET *175 0.0215925

*CONN
*I *964:D I *C 1777.3 272.175 *L 0.000212 *D NAND4XL
*I *678:Y O *C 1559.13 270.71 *L 0 *D INVX3

*CAP
1 *964:D 2.26683e-05
2 *678:Y 2.26683e-05
3 *175:3 1.79458e-05
4 *175:4 0.000360489
5 *175:5 0.000364425
6 *175:6 0.01031645
7 *175:7 8.76823e-05
8 *175:8 0.0103125
9 *175:9 8.76823e-05

*RES
1 *175:9 *964:D 8.76458
2 *175:7 *175:9 6.2035
3 *175:8 *175:7 8.76458
4 *175:6 *175:8 745.968262
5 *175:5 *175:6 1.02443
6 *175:4 *175:5 25.3945
7 *175:3 *175:4 8.76458
8 *175:3 *678:Y 8.76458
9 *175:2 *175:3 1.01305
*END

*D_NET *176 0.0215427

*CONN
*I *679:Y O *C 1338.95 270.355 *L 0 *D INVX4
*I *678:A I *C 1558.5 270.085 *L 0.0012 *D INVX3

*CAP
1 *679:Y 2.27412e-05
2 *678:A 2.27412e-05
3 *176:2 0.01072188
4 *176:5 1.7833e-05
5 *176:6 0.00362353
6 *176:7 1.7833e-05
7 *176:8 0.00711618

*RES
1 *176:7 *678:A 8.75747
2 *176:4 *176:7 1.01831
3 *176:8 *176:7 8.75747
4 *176:2 *176:8 513.353821
5 *176:6 *176:2 261.079
6 *176:5 *176:6 8.75747
7 *176:5 *679:Y 8.75747
8 *176:3 *176:5 1.01831
*END

*D_NET *177 0.0215691

*CONN
*I *680:Y O *C 1118.55 270.355 *L 0 *D INVX4
*I *679:A I *C 1338.785 270.235 *L 0.00161 *D INVX4

*CAP
1 *680:Y 0.000277277
2 *679:A 9.87998e-06
3 *177:4 0.000290025
4 *177:5 1.78477e-05
5 *177:6 0.0104433
6 *177:7 3.26677e-05
7 *177:8 1.78477e-05
8 *177:9 0.0104433
9 *177:10 1.35451e-05
10 *177:11 2.34251e-05

*RES
1 *177:10 *679:A 0.608737
2 *177:10 *177:11 0.344568
3 *177:7 *177:11 1.20599
4 *177:8 *177:7 8.76352
5 *177:3 *177:8 1.02222
6 *177:9 *177:8 8.76352
7 *177:6 *177:9 752.721069
8 *680:Y *177:4 16.9183
9 *177:5 *177:6 8.76352
10 *177:5 *177:4 8.76352
11 *177:2 *177:5 1.02222
*END

*D_NET *178 0.0219412

*CONN
*I *681:Y O *C 1074.55 449.745 *L 0 *D INVX4
*I *680:A I *C 1118.385 270.235 *L 0.00161 *D INVX4

*CAP
1 *681:Y 2.26706e-05
2 *680:A 9.89488e-06
3 *178:2 0.00214256
4 *178:3 0.00820837
5 *178:4 0.00820837
6 *178:5 2.27958e-05
7 *178:6 0.000578412
8 *178:7 0.00214256
9 *178:8 0.000578412
10 *178:9 1.36524e-05
11 *178:10 1.36524e-05

*RES
1 *178:9 *680:A 0.605167
2 *178:9 *178:10 0.343229
3 *178:5 *178:10 0.605167
4 *178:6 *178:5 8.76138
5 *178:6 *178:8 42.0998
6 *178:4 *681:Y 8.76138
7 *178:7 *178:8 8.76138
8 *178:3 *178:4 591.944092
9 *178:2 *178:7 128.837
10 *178:2 *178:3 8.76138
*END

*D_NET *179 0.020893

*CONN
*I *682:Y O *C 1074.55 673.915 *L 0 *D INVX4
*I *681:A I *C 1074.385 449.865 *L 0.00161 *D INVX4

*CAP
1 *682:Y 2.26598e-05
2 *681:A 2.26598e-05
3 *179:2 0.000311003
4 *179:3 0.000329252
5 *179:4 0.0001463
6 *179:5 0.000141586
7 *179:6 0.00996653
8 *179:7 0.009953

*RES
1 *179:5 *682:Y 8.76351
2 *179:4 *179:5 8.7403
3 *179:4 *179:7 1.07948
4 *179:6 *179:7 760.695862
5 *179:3 *179:6 2.15896
6 *179:2 *179:3 21.8565
7 *681:A *179:2 8.76351
*END

*D_NET *180 0.00862766

*CONN
*I *683:Y O *C 1074.53 764.52 *L 0 *D INVX2
*I *682:A I *C 1074.385 673.795 *L 0.00161 *D INVX4

*CAP
1 *683:Y 2.26827e-05
2 *682:A 2.26827e-05
3 *180:2 0.000625235
4 *180:3 0.000657161
5 *180:4 9.29619e-05
6 *180:5 9.29619e-05
7 *180:6 0.00348129
8 *180:7 0.00345404
9 *180:8 9.1687e-05
10 *180:9 8.70123e-05

*RES
1 *180:9 *683:Y 8.76151
2 *180:8 *180:9 5.4034
3 *180:5 *180:8 1.08068
4 *180:4 *180:5 6.40403
5 *180:4 *180:7 1.08068
6 *180:6 *180:7 262.308929
7 *180:3 *180:6 3.23804
8 *180:2 *180:3 45.9129
9 *682:A *180:2 8.76151
*END

*D_NET *181 0.0223513

*CONN
*I *958:D I *C 1780.1 646.285 *L 0.000212 *D NAND4XL
*I *684:Y O *C 1559.55 641.265 *L 0 *D INVX4

*CAP
1 *958:D 2.27349e-05
2 *684:Y 0.000366302
3 *181:2 4.92854e-05
4 *181:3 5.3896e-05
5 *181:5 0.000379179
6 *181:6 1.79653e-05
7 *181:7 0.0104151
8 *181:8 0.00020048
9 *181:9 0.00020048
10 *181:10 0.01041909
11 *181:11 2.19399e-05
12 *181:12 2.79814e-05
13 *181:13 3.27509e-05
14 *181:14 4.76955e-05
15 *181:15 2.60736e-05
16 *181:16 2.25759e-05
17 *181:17 4.76955e-05

*RES
1 *181:15 *958:D 8.76595
2 *181:15 *181:16 1.07432
3 *181:17 *181:16 8.76595
4 *181:14 *181:17 2.10291
5 *181:2 *181:14 8.76595
6 *181:3 *181:2 2.68579
7 *181:9 *181:3 1.07432
8 *181:8 *181:9 13.4061
9 *181:8 *181:13 1.07432
10 *181:12 *181:13 1.33718
11 *181:11 *181:12 8.76595
12 *181:10 *181:11 1.01717
13 *181:7 *181:10 749.003418
14 *684:Y *181:5 22.172
15 *181:6 *181:7 8.76595
16 *181:6 *181:5 8.76595
17 *181:4 *181:6 1.01717
*END

*D_NET *182 0.0216519

*CONN
*I *685:Y O *C 1338.15 641.265 *L 0 *D INVX4
*I *684:A I *C 1559.385 641.385 *L 0.00161 *D INVX4

*CAP
1 *685:Y 0.000346594
2 *684:A 9.92886e-06
3 *182:2 0.01001058
4 *182:5 0.000359425
5 *182:6 1.78719e-05
6 *182:7 0.00332082
7 *182:8 0.000428774
8 *182:9 1.78719e-05
9 *182:10 0.00670763
10 *182:11 0.000419151
11 *182:12 1.32894e-05

*RES
1 *182:12 *684:A 0.60014
2 *182:11 *182:12 0.303775
3 *182:8 *182:11 25.1688
4 *182:9 *182:8 8.7576
5 *182:4 *182:9 1.02246
6 *182:10 *182:9 8.7576
7 *182:2 *182:10 485.565308
8 *182:7 *182:2 240.123
9 *685:Y *182:5 20.9753
10 *182:6 *182:7 8.7576
11 *182:6 *182:5 8.7576
12 *182:3 *182:6 1.02246
*END

*D_NET *183 0.0216834

*CONN
*I *686:Y O *C 1116.75 641.265 *L 0 *D INVX4
*I *685:A I *C 1337.985 641.385 *L 0.00161 *D INVX4

*CAP
1 *686:Y 0.000326777
2 *685:A 2.27018e-05
3 *183:4 0.000339567
4 *183:5 1.79056e-05
5 *183:6 0.01047718
6 *183:7 1.10311e-05
7 *183:8 0.01047718
8 *183:9 1.10311e-05

*RES
1 *183:9 *685:A 8.76189
2 *183:3 *183:7 0.786027
3 *183:7 *183:9 0.161829
4 *183:8 *183:7 8.76189
5 *183:6 *183:8 757.545288
6 *686:Y *183:4 19.7778
7 *183:5 *183:6 8.76189
8 *183:5 *183:4 8.76189
9 *183:2 *183:5 1.01721
*END

*D_NET *184 0.00882932

*CONN
*I *687:Y O *C 1027.9301 641.4 *L 0 *D INVX2
*I *686:A I *C 1116.585 641.385 *L 0.00161 *D INVX4

*CAP
1 *687:Y 2.26483e-05
2 *686:A 9.90449e-06
3 *184:4 1.78941e-05
4 *184:5 1.86865e-05
5 *184:6 2.27143e-05
6 *184:7 0.00432727
7 *184:8 3.26188e-05
8 *184:9 1.78941e-05
9 *184:10 0.00432331
10 *184:11 2.31105e-05
11 *184:12 1.3272e-05

*RES
1 *184:12 *686:A 0.599556
2 *184:11 *184:12 0.30686
3 *184:8 *184:11 1.19911
4 *184:9 *184:8 8.76202
5 *184:3 *184:9 1.01972
6 *184:10 *184:9 8.76202
7 *184:7 *184:10 309.390015
8 *184:6 *184:7 1.02444
9 *184:5 *184:6 0.708138
10 *184:4 *184:5 8.76202
11 *184:4 *687:Y 8.76202
12 *184:2 *184:4 1.01972
*END

*D_NET *185 0.0218831

*CONN
*I *688:Y O *C 806.73 640.91 *L 0 *D INVX3
*I *687:A I *C 1027.5 641.535 *L 0.000801 *D INVX2

*CAP
1 *688:Y 2.27126e-05
2 *687:A 2.27126e-05
3 *185:2 2.61332e-05
4 *185:3 2.61332e-05
5 *185:4 0.00138438
6 *185:5 0.0089667
7 *185:6 0.000248744
8 *185:7 0.000248744
9 *185:8 0.00760422
10 *185:9 0.00123059
11 *185:10 3.44794e-05
12 *185:11 3.44794e-05
13 *185:12 0.00122662
14 *185:4 *278:9 6.149e-05
15 *185:5 *278:2 6.149e-05
16 *185:6 *278:9 1.14e-06
17 *185:7 *278:2 1.14e-06
18 *185:5 *278:2 0.00034058
19 *185:8 *278:3 0.000340579995

*RES
1 *185:10 *687:A 8.7574
2 *185:10 *185:11 2.01824
3 *185:12 *185:11 8.7574
4 *185:9 *185:12 88.1532
5 *185:6 *185:9 1.02667
6 *185:7 *185:6 18.1378
7 *185:7 *185:4 1.02667
8 *185:5 *185:4 103.834
9 *185:8 *185:5 575.075256
10 *185:2 *185:8 8.7574
11 *185:3 *185:2 1.35134
12 *688:Y *185:3 8.7574
*END

*D_NET *186 0.0218068

*CONN
*I *689:Y O *C 586.95 641.265 *L 0 *D INVX4
*I *688:A I *C 806.1 641.535 *L 0.0012 *D INVX3

*CAP
1 *689:Y 2.26804e-05
2 *688:A 2.26804e-05
3 *186:2 4.71054e-05
4 *186:3 4.71054e-05
5 *186:4 0.01039411
6 *186:5 0.01039411
7 *186:6 3.63203e-05
8 *186:7 3.63203e-05
9 *186:4 *277:9 8.58e-06
10 *186:5 *277:7 8.58e-06
11 *186:4 *277:2 0.00039469
12 *186:5 *277:3 0.000394690004

*RES
1 *186:6 *688:A 8.76258
2 *186:6 *186:7 3.0084
3 *186:4 *186:7 8.76258
4 *186:5 *186:4 782.376221
5 *186:2 *186:5 8.76258
6 *186:3 *186:2 2.69801
7 *689:Y *186:3 8.76258
*END

*D_NET *187 0.0228401

*CONN
*I *958:C I *C 1779.9 646.285 *L 0.000211 *D NAND4XL
*I *690:Y O *C 1780.53 865.79 *L 0 *D INVX3

*CAP
1 *958:C 2.26439e-05
2 *690:Y 4.45465e-05
3 *187:2 0.00171851
4 *187:3 0.00171851
5 *187:4 0.00359014
6 *187:5 0.00359014
7 *187:6 5.85641e-05
8 *187:7 2.5407e-05
9 *187:8 2.42613e-05
10 *187:9 0.00441657
11 *187:10 0.00441657
12 *187:11 9.253e-05
13 *187:12 3.97616e-05
14 *187:13 3.97616e-05
15 *187:14 9.253e-05
16 *187:2 *204:13 0.00107477
17 *187:3 *204:12 0.00107477
18 *187:2 *200:4 0.00040003
19 *187:3 *200:5 0.000400030004

*RES
1 *187:6 *690:Y 2.92918
2 *187:7 *187:6 1.31341
3 *187:8 *187:7 0.590561
4 *187:4 *187:8 8.7592
5 *187:5 *187:4 271.993
6 *187:13 *187:5 8.7592
7 *187:3 *958:C 8.7592
8 *187:12 *187:13 2.1024
9 *187:3 *187:2 213.438
10 *187:9 *187:12 8.7592
11 *187:14 *187:2 8.7592
12 *187:10 *187:9 309.623932
13 *187:11 *187:14 4.91347
14 *187:11 *187:10 8.7592
*END

*D_NET *188 0.00882654

*CONN
*I *691:Y O *C 1780.33 952.62 *L 0 *D INVX2
*I *690:A I *C 1779.9 865.165 *L 0.0012 *D INVX3

*CAP
1 *691:Y 2.26806e-05
2 *690:A 5.41361e-05
3 *188:2 0.000878031
4 *188:3 0.000878031
5 *188:4 0.00231416
6 *188:5 0.00231883
7 *188:6 0.000358608
8 *188:7 0.000353937
9 *188:9 6.69802e-05
10 *188:10 5.04563e-05
11 *188:11 1.79038e-05
12 *188:12 5.04563e-05
13 *188:4 *263:22 0.00043869
14 *188:5 *263:21 0.00043869
15 *188:6 *263:25 2.308e-05
16 *188:7 *263:24 2.308e-05
17 *188:2 *263:22 6.31e-05
18 *188:3 *263:21 6.30999786e-05
19 *188:4 *306:19 5.75e-06
20 *188:5 *306:20 5.75e-06
21 *188:4 *306:6 0.00020058
22 *188:5 *306:7 0.000200579995

*RES
1 *188:9 *690:A 2.63483
2 *188:7 *188:9 8.76106
3 *188:7 *188:6 26.2474
4 *188:3 *188:6 1.07152
5 *188:3 *188:2 68.8216
6 *188:2 *188:5 1.07152
7 *188:5 *188:4 213.444229
8 *188:10 *188:4 8.76106
9 *188:10 *188:12 3.99296
10 *188:11 *188:12 8.76106
11 *188:11 *691:Y 8.76106
12 *188:8 *188:11 1.01615
*END

*D_NET *189 0.0220812

*CONN
*I *957:B I *C 1775.9 579.975 *L 0.000212 *D NAND4XL
*I *692:Y O *C 1782.365 802.415 *L 0 *D CLKINVX6

*CAP
1 *957:B 2.2632e-05
2 *692:Y 6.39461e-05
3 *189:2 2.59414e-05
4 *189:3 5.78611e-05
5 *189:4 0.00347401
6 *189:5 3.46953e-05
7 *189:6 0.0034422
8 *189:7 0.000318556
9 *189:8 4.99612e-05
10 *189:9 0.000318556
11 *189:10 8.32687e-05
12 *189:11 3.08521e-05
13 *189:12 7.67566e-05
14 *189:13 2.61549e-05
15 *189:14 6.80028e-05
16 *189:15 0.00699147
17 *189:16 0.00699617

*RES
1 *692:Y *189:12 5.08173
2 *189:13 *189:12 8.75993
3 *189:11 *189:13 1.34706
4 *189:11 *189:16 1.07281
5 *189:15 *189:16 528.628601
6 *189:14 *189:15 8.75993
7 *189:10 *189:14 5.29145
8 *189:9 *189:10 2.62959
9 *189:7 *189:9 16.4874
10 *189:7 *189:8 2.62959
11 *189:5 *189:8 1.20993
12 *189:6 *189:5 8.75993
13 *189:4 *189:6 254.627
14 *189:3 *189:4 3.21843
15 *189:2 *189:3 1.33899
16 *957:B *189:2 8.75993
*END

*D_NET *190 0.00855803

*CONN
*I *693:Y O *C 1781.53 891.06 *L 0 *D INVX2
*I *692:A I *C 1781.5 802.275 *L 0.00241 *D CLKINVX6

*CAP
1 *693:Y 2.26804e-05
2 *692:A 2.26804e-05
3 *190:2 4.88378e-05
4 *190:3 3.05595e-05
5 *190:4 0.000614859
6 *190:5 0.000614859
7 *190:6 0.00134076
8 *190:7 0.00134545
9 *190:8 0.0020769
10 *190:9 0.00209052
11 *190:9 *217:2 2.308e-05
12 *190:8 *217:3 2.308e-05
13 *190:9 *217:4 7.18e-06
14 *190:8 *217:5 7.18e-06
15 *190:7 *217:6 9.55e-05
16 *190:6 *217:7 9.55e-05
17 *190:7 *217:8 6.59e-06
18 *190:6 *217:9 6.59e-06
19 *190:5 *217:5 4.262e-05
20 *190:4 *217:10 4.26200031e-05

*RES
1 *190:6 *692:A 8.7612
2 *190:6 *190:7 109.559
3 *190:4 *190:7 1.07285
4 *190:4 *190:5 48.2187
5 *190:5 *190:8 1.07285
6 *190:8 *190:9 155.898453
7 *190:3 *693:Y 8.7612
8 *190:2 *190:9 2.14332
9 *190:2 *190:3 1.46298
*END

*D_NET *191 0.0229982

*CONN
*I *960:B I *C 1777.7 518.415 *L 0.000212 *D NAND4XL
*I *694:Y O *C 1780.13 740.09 *L 0 *D INVX3

*CAP
1 *960:B 2.26672e-05
2 *694:Y 5.34633e-05
3 *191:2 0.00341493
4 *191:3 0.00341493
5 *191:4 0.00201066
6 *191:5 0.00200597
7 *191:6 3.02229e-05
8 *191:7 3.02229e-05
9 *191:8 0.000895745
10 *191:9 0.000895745
11 *191:10 3.6997e-05
12 *191:11 3.6997e-05
13 *191:12 3.58506e-05
14 *191:13 3.58506e-05
15 *191:14 0.0013419
16 *191:15 0.00134664
17 *191:16 2.19898e-05
18 *191:17 1.73e-05
19 *191:18 0.00271131
20 *191:19 0.00271131
21 *191:20 6.63341e-05
22 *191:21 0.000117244
23 *191:22 2.2563e-05
24 *191:23 0.000152157
25 *191:24 0.000117244
26 *191:25 7.3942e-05
27 *191:26 7.3942e-05
28 *191:27 0.000152157
29 *191:14 *212:8 0.0002279
30 *191:15 *212:9 0.0002279
31 *191:18 *212:8 0.00034741
32 *191:19 *212:9 0.00034741
33 *191:16 *212:8 6.9e-07
34 *191:17 *212:9 6.89975603e-07

*RES
1 *191:20 *694:Y 3.3887
2 *191:14 *191:20 8.75998
3 *191:15 *191:14 111.835
4 *191:16 *191:15 1.07504
5 *191:17 *191:16 0.673844
6 *191:10 *191:17 8.75998
7 *191:11 *191:10 1.41001
8 *191:26 *191:11 8.75998
9 *191:25 *191:26 4.02359
10 *191:13 *191:25 8.75998
11 *191:13 *191:12 2.42272
12 *191:18 *191:12 8.75998
13 *191:19 *191:18 194.122
14 *191:7 *960:B 8.75998
15 *191:27 *191:19 8.75998
16 *191:7 *191:6 1.46454
17 *191:23 *191:27 9.82333
18 *191:24 *191:6 8.75998
19 *191:22 *191:23 8.75998
20 *191:21 *191:24 7.02278
21 *191:2 *191:22 1.07504
22 *191:5 *191:21 8.75998
23 *191:3 *191:2 255.266312
24 *191:5 *191:4 151.155
25 *191:8 *191:3 1.07114
26 *191:9 *191:4 1.07114
27 *191:9 *191:8 67.0573
*END

*D_NET *192 0.0082591

*CONN
*I *695:Y O *C 1779.53 819.24 *L 0 *D INVX2
*I *694:A I *C 1779.5 740.715 *L 0.0012 *D INVX3

*CAP
1 *695:Y 2.26668e-05
2 *694:A 4.57771e-05
3 *192:2 0.00116234
4 *192:3 0.00114874
5 *192:4 0.000821876
6 *192:5 0.000817194
7 *192:6 6.91888e-05
8 *192:7 6.91888e-05
9 *192:8 0.000705261
10 *192:9 0.000705261
11 *192:10 6.19524e-05
12 *192:11 6.66348e-05
13 *192:12 4.40034e-05
14 *192:13 5.76071e-05
15 *192:14 0.000391118
16 *192:15 0.000391118
17 *192:16 0.000296815
18 *192:17 0.000292115
19 *192:18 5.86358e-05
20 *192:19 6.4471e-05
21 *192:20 5.97886e-05
22 *192:21 6.52691e-05
23 *192:22 6.52691e-05
24 *192:2 *204:13 0.00019478
25 *192:3 *204:12 0.00019478
26 *192:4 *204:13 0.00013385
27 *192:5 *204:12 0.00013385
28 *192:6 *204:13 4.81e-06
29 *192:7 *204:12 4.81e-06
30 *192:8 *204:13 5.042e-05
31 *192:9 *204:12 5.042e-05
32 *192:10 *204:13 2.73e-06
33 *192:11 *204:12 2.73e-06
34 *192:12 *204:13 1.82e-06
35 *192:13 *204:12 1.81998991e-06

*RES
1 *192:10 *695:Y 8.76092
2 *192:11 *192:10 3.66522
3 *192:11 *192:6 1.07286
4 *192:7 *192:6 4.70013
5 *192:12 *192:7 1.07286
6 *192:13 *192:12 2.19972
7 *192:13 *192:2 2.14717
8 *192:3 *192:2 95.6607285
9 *192:8 *192:3 1.0714
10 *192:9 *192:8 54.5332
11 *192:9 *192:4 1.0714
12 *192:5 *192:4 66.7301
13 *192:22 *192:5 8.76092
14 *192:21 *192:22 3.50612
15 *192:18 *694:A 2.43618
16 *192:20 *192:21 8.76092
17 *192:17 *192:18 8.76092
18 *192:19 *192:20 3.48277
19 *192:17 *192:16 19.9157
20 *192:14 *192:19 1.0714
21 *192:15 *192:16 1.07286
22 *192:15 *192:14 26.9338
*END

*D_NET *193 0.0225128

*CONN
*I *959:B I *C 1778.5 707.845 *L 0.000212 *D NAND4XL
*I *696:Y O *C 1778.33 930.77 *L 0 *D INVX3

*CAP
1 *959:B 2.26218e-05
2 *696:Y 2.26218e-05
3 *193:2 0.00499165
4 *193:3 0.00498693
5 *193:4 0.00362954
6 *193:5 0.00363419
7 *193:6 0.000879661
8 *193:7 0.000879661
9 *193:8 0.00137803
10 *193:9 0.00137803
11 *193:10 0.000123468
12 *193:11 0.000123468
13 *193:12 0.000210375
14 *193:13 2.10223e-05
15 *193:14 2.10223e-05
16 *193:15 0.000210375

*RES
1 *193:14 *959:B 8.76194
2 *193:13 *193:14 0.732856
3 *193:11 *193:13 8.76194
4 *193:11 *193:10 12.173
5 *193:9 *193:10 8.76194
6 *193:9 *193:8 98.359
7 *193:15 *193:8 8.76194
8 *193:12 *193:15 12.6256
9 *193:4 *696:Y 8.76194
10 *193:3 *193:12 8.76194
11 *193:5 *193:4 274.541
12 *193:3 *193:2 353.150482
13 *193:6 *193:5 1.07234
14 *193:7 *193:2 1.07234
15 *193:7 *193:6 65.4182
*END

*D_NET *194 0.00704749

*CONN
*I *697:Y O *C 1777.53 1003.92 *L 0 *D INVX2
*I *696:A I *C 1777.7 930.145 *L 0.0012 *D INVX3

*CAP
1 *697:Y 2.26727e-05
2 *696:A 2.26727e-05
3 *194:2 0.000283725
4 *194:3 0.000279038
5 *194:4 0.00276695
6 *194:5 0.00276695
7 *194:6 0.000325692
8 *194:7 0.000330379
9 *194:5 *317:6 5.985e-05
10 *194:4 *317:7 5.985e-05
11 *194:5 *317:7 2.88e-06
12 *194:4 *317:8 2.88e-06
13 *194:5 *317:8 1.21e-06
14 *194:4 *317:9 1.21e-06
15 *194:5 *317:10 4.814e-05
16 *194:4 *317:11 4.814e-05
17 *194:5 *317:12 6.85e-06
18 *194:4 *317:13 6.85e-06
19 *194:5 *317:14 5.77e-06
20 *194:4 *317:15 5.77000148e-06

*RES
1 *194:6 *696:A 8.76121
2 *194:6 *194:7 22.815
3 *194:4 *194:7 1.07443
4 *194:4 *194:5 217.32576
5 *194:3 *697:Y 8.76121
6 *194:2 *194:5 1.07111
7 *194:2 *194:3 19.3529
*END

*D_NET *195 0.0177064

*CONN
*I *959:C I *C 1778.7 707.845 *L 0.000211 *D NAND4XL
*I *698:Y O *C 1607.9301 702.47 *L 0 *D INVX3

*CAP
1 *959:C 2.2631e-05
2 *698:Y 2.2631e-05
3 *195:2 1.95223e-05
4 *195:3 1.95223e-05
5 *195:4 0.000253169
6 *195:5 0.000253169
7 *195:6 5.54583e-05
8 *195:7 5.65775e-05
9 *195:9 0.000221833
10 *195:10 4.47646e-05
11 *195:11 0.000221833
12 *195:12 0.00814902
13 *195:13 0.00813497
14 *195:14 3.36978e-05
15 *195:15 3.36978e-05
16 *195:16 7.29911e-05
17 *195:17 1.79058e-05
18 *195:18 7.29911e-05

*RES
1 *195:9 *698:Y 8.76403
2 *195:9 *195:11 14.7991
3 *195:10 *195:11 8.76403
4 *195:10 *195:12 2.57898
5 *195:12 *195:13 491.325592
6 *195:13 *195:14 1.29699
7 *195:14 *195:15 1.20702
8 *195:15 *195:5 1.29699
9 *195:5 *195:4 14.3568
10 *195:7 *195:4 1.31948
11 *195:7 *195:6 2.38406
12 *195:2 *195:6 8.76403
13 *195:3 *195:2 0.674733
14 *195:16 *195:3 8.76403
15 *195:16 *195:18 3.24622
16 *195:17 *959:C 8.76403
17 *195:17 *195:18 8.76403
18 *195:8 *195:17 1.0121
*END

*D_NET *196 0.021898

*CONN
*I *699:Y O *C 1393.95 702.825 *L 0 *D INVX4
*I *698:A I *C 1607.3 703.095 *L 0.0012 *D INVX3

*CAP
1 *699:Y 0.000237592
2 *698:A 2.2665e-05
3 *196:2 0.0102438
4 *196:5 0.000250566
5 *196:6 1.78194e-05
6 *196:7 0.000703866
7 *196:8 0.00956182
8 *196:9 0.000422976
9 *196:10 1.78194e-05
10 *196:11 0.000419068

*RES
1 *196:10 *698:A 8.7593
2 *196:4 *196:10 1.0246
3 *196:11 *196:10 8.7593
4 *196:9 *196:11 29.7334
5 *196:8 *196:9 1.0246
6 *196:2 *196:8 658.313965
7 *196:7 *196:2 50.376
8 *699:Y *196:5 14.3845
9 *196:6 *196:7 8.7593
10 *196:6 *196:5 8.7593
11 *196:3 *196:6 1.0246
*END

*D_NET *197 0.0209694

*CONN
*I *700:Y O *C 1179.55 702.825 *L 0 *D INVX4
*I *699:A I *C 1393.785 702.945 *L 0.00161 *D INVX4

*CAP
1 *700:Y 3.96142e-05
2 *699:A 9.90354e-06
3 *197:4 5.25045e-05
4 *197:5 1.79207e-05
5 *197:6 0.01030204
6 *197:7 0.000111926
7 *197:8 1.79207e-05
8 *197:9 0.01030204
9 *197:10 0.000102337
10 *197:11 1.32047e-05

*RES
1 *197:11 *699:A 0.602905
2 *197:10 *197:11 0.30714
3 *197:7 *197:10 5.99493
4 *197:8 *197:7 8.75919
5 *197:3 *197:8 1.0238
6 *197:9 *197:8 8.75919
7 *197:6 *197:9 745.509521
8 *700:Y *197:4 2.40025
9 *197:5 *197:6 8.75919
10 *197:5 *197:4 8.75919
11 *197:2 *197:5 1.0238
*END

*D_NET *198 0.00422517

*CONN
*I *701:Y O *C 1136.53 702.47 *L 0 *D INVX1
*I *700:A I *C 1179.385 702.945 *L 0.00161 *D INVX4

*CAP
1 *701:Y 2.26707e-05
2 *700:A 9.92014e-06
3 *198:4 1.78994e-05
4 *198:5 0.00176662
5 *198:6 0.000309923
6 *198:7 1.78994e-05
7 *198:8 0.00176662
8 *198:9 0.000300381
9 *198:10 1.32358e-05

*RES
1 *198:10 *700:A 0.598919
2 *198:9 *198:10 0.305293
3 *198:6 *198:9 17.9773
4 *198:7 *198:6 8.76016
5 *198:3 *198:7 1.02088
6 *198:8 *198:7 8.76016
7 *198:5 *198:8 127.437531
8 *198:4 *198:5 8.76016
9 *198:4 *701:Y 8.76016
10 *198:2 *198:4 1.02088
*END

*D_NET *199 0.0177089

*CONN
*I *962:A I *C 1779.5 398.905 *L 0.000212 *D NAND4XL
*I *702:Y O *C 1779.53 575.93 *L 0 *D INVX3

*CAP
1 *962:A 2.26267e-05
2 *702:Y 2.26267e-05
3 *199:2 0.0079249
4 *199:3 0.00792962
5 *199:4 0.0003152
6 *199:5 0.0003152
7 *199:6 2.38367e-05
8 *199:7 2.85556e-05
9 *199:2 *243:2 0.00054024
10 *199:3 *243:3 0.00054024
11 *199:7 *243:4 2.87e-06
12 *199:6 *243:5 2.87e-06
13 *199:5 *243:4 1.996e-05
14 *199:4 *243:5 1.99599454e-05

*RES
1 *199:2 *702:Y 8.76101
2 *199:6 *962:A 8.76101
3 *199:3 *199:2 601.846375
4 *199:6 *199:7 1.34078
5 *199:5 *199:3 1.07446
6 *199:4 *199:7 1.07446
7 *199:4 *199:5 23.6382
*END

*D_NET *200 0.0180767

*CONN
*I *703:Y O *C 1779.53 753.77 *L 0 *D INVX3
*I *702:A I *C 1778.9 576.555 *L 0.0012 *D INVX3

*CAP
1 *703:Y 2.27211e-05
2 *702:A 2.27211e-05
3 *200:2 0.00207679
4 *200:3 0.00207207
5 *200:4 0.00422548
6 *200:5 0.00423019
7 *200:6 3.89228e-05
8 *200:7 3.89228e-05
9 *200:8 4.36348e-05
10 *200:9 4.36348e-05
11 *200:10 0.00103846
12 *200:11 0.00103846
13 *200:4 *187:2 0.00040003
14 *200:5 *187:3 0.000400030004
15 *200:4 *212:8 0.00073959
16 *200:5 *212:9 0.00073959
17 *200:11 *212:2 7.529e-05
18 *200:10 *212:3 7.529e-05
19 *200:4 *212:2 2.348e-05
20 *200:5 *212:3 2.348e-05
21 *200:2 *212:2 0.00032988
22 *200:3 *212:3 0.00032988
23 *200:4 *212:10 8.93e-06
24 *200:5 *212:11 8.93e-06
25 *200:7 *212:2 1.516e-05
26 *200:6 *212:3 1.51600764e-05

*RES
1 *200:4 *703:Y 8.75886
2 *200:5 *200:4 383.960358
3 *200:5 *200:11 1.07215
4 *200:10 *200:11 81.5072
5 *200:2 *200:10 1.07215
6 *200:3 *200:2 161.438
7 *200:9 *200:3 8.75886
8 *200:8 *200:9 2.1033
9 *200:7 *200:8 8.75886
10 *200:6 *200:7 2.92938
11 *702:A *200:6 8.75886
*END

*D_NET *201 0.0222437

*CONN
*I *704:Y O *C 1779.75 976.425 *L 0 *D INVX4
*I *703:A I *C 1778.9 754.395 *L 0.0012 *D INVX3

*CAP
1 *704:Y 1.00722e-05
2 *703:A 2.6898e-05
3 *201:2 0.0011827
4 *201:3 0.0011827
5 *201:4 5.39125e-05
6 *201:5 5.86283e-05
7 *201:6 0.000863414
8 *201:7 0.000863414
9 *201:8 0.000772881
10 *201:9 0.000772881
11 *201:10 0.000541861
12 *201:11 0.000541861
13 *201:12 0.00143561
14 *201:13 0.00143561
15 *201:14 0.000910748
16 *201:15 0.000906032
17 *201:16 8.24989e-05
18 *201:17 8.24989e-05
19 *201:18 7.13205e-05
20 *201:19 7.13205e-05
21 *201:21 0.000153645
22 *201:22 0.000153645
23 *201:23 3.97066e-05
24 *201:24 1.86889e-05
25 *201:25 0.00381078
26 *201:26 0.0038155
27 *201:27 0.00116506
28 *201:28 0.0011604
29 *201:29 1.86889e-05
30 *201:30 2.28808e-05
31 *201:31 1.78738e-05

*RES
1 *201:23 *703:A 1.21599
2 *201:15 *201:23 8.7618
3 *201:15 *201:14 66.284
4 *201:14 *201:9 1.07024
5 *201:9 *201:8 57.7388
6 *201:13 *201:8 1.07024
7 *201:13 *201:12 105.945
8 *201:12 *201:17 1.0744
9 *201:17 *201:16 4.16019
10 *201:11 *201:16 1.0744
11 *201:11 *201:10 39.4531
12 *201:10 *201:3 1.0744
13 *201:3 *201:2 80.2929
14 *201:7 *201:2 1.07024
15 *201:7 *201:6 62.9442
16 *201:6 *201:5 1.07024
17 *201:5 *201:4 3.3648
18 *201:29 *201:4 8.7618
19 *201:24 *201:29 0.699612
20 *201:25 *201:24 8.7618
21 *201:25 *201:26 272.915131
22 *201:21 *201:26 1.0744
23 *201:21 *201:22 11.0689
24 *201:22 *201:27 1.0744
25 *201:27 *201:28 83.6702
26 *201:19 *201:28 8.7618
27 *201:19 *201:18 4.5558
28 *704:Y *201:30 0.607996
29 *201:31 *201:18 8.7618
30 *201:31 *201:30 8.7618
31 *201:20 *201:31 1.01194
*END

*D_NET *202 0.0216988

*CONN
*I *705:Y O *C 1781.55 1198.725 *L 0 *D INVX4
*I *704:A I *C 1779.585 976.545 *L 0.00161 *D INVX4

*CAP
1 *705:Y 2.26225e-05
2 *704:A 2.26225e-05
3 *202:2 0.00988379
4 *202:3 0.00983824
5 *202:4 3.64977e-05
6 *202:5 3.64977e-05
7 *202:6 8.70214e-05
8 *202:7 8.70214e-05
9 *202:8 6.33431e-05
10 *202:2 *214:2 0.00017845
11 *202:3 *214:3 0.00017845
12 *202:2 *214:2 0.00020546
13 *202:3 *214:3 0.00020546
14 *202:2 *214:6 2.119e-05
15 *202:3 *214:4 2.11899795e-05
16 *202:2 *363:3 0.00040545
17 *202:3 *363:4 0.000405449998

*RES
1 *202:8 *705:Y 8.76133
2 *202:2 *202:8 4.29053
3 *202:3 *202:2 787.630615
4 *202:7 *202:3 8.76133
5 *202:6 *202:7 4.21842
6 *202:4 *202:6 8.76133
7 *202:5 *202:4 1.82678
8 *704:A *202:5 8.76133
*END

*D_NET *203 0.0180324

*CONN
*I *963:A I *C 1777.5 461.415 *L 0.000212 *D NAND4XL
*I *706:Y O *C 1779.73 640.07 *L 0 *D INVX3

*CAP
1 *963:A 2.26684e-05
2 *706:Y 3.43254e-05
3 *203:2 4.5185e-05
4 *203:3 4.05146e-05
5 *203:4 4.71594e-05
6 *203:5 2.65794e-05
7 *203:6 2.65794e-05
8 *203:7 0.0024884
9 *203:8 0.0024884
10 *203:9 0.00236898
11 *203:10 0.00237365
12 *203:11 0.00211697
13 *203:12 0.00211697
14 *203:15 1.78841e-05
15 *203:16 0.000186701
16 *203:17 1.78841e-05
17 *203:18 0.000186701
18 *203:19 5.39941e-05
19 *203:20 5.39941e-05
20 *203:11 *212:2 0.00040144
21 *203:12 *212:3 0.000401440011
22 *203:11 *231:27 2.87e-06
23 *203:12 *231:26 2.87e-06
24 *203:11 *231:12 0.0001857
25 *203:12 *231:13 0.0001857
26 *203:7 *231:32 1.827e-05
27 *203:8 *231:31 1.827e-05
28 *203:7 *231:30 4.834e-05
29 *203:8 *231:29 4.834e-05
30 *203:7 *231:27 2.04e-06
31 *203:8 *231:26 2.04e-06
32 *203:7 *231:18 1.111e-05
33 *203:8 *231:19 1.111e-05
34 *203:7 *231:2 0.00028173
35 *203:8 *231:3 0.00028173
36 *203:7 *231:4 1.686e-05
37 *203:8 *231:5 1.686e-05
38 *203:7 *231:6 1.124e-05
39 *203:8 *231:7 1.12399998e-05
40 *203:5 *239:18 3.92e-06
41 *203:6 *239:17 3.92e-06
42 *203:7 *239:14 0.00041436
43 *203:8 *239:13 0.00041436
44 *203:9 *239:2 0.00010177
45 *203:10 *239:3 0.00010177
46 *203:5 *239:2 7.83e-06
47 *203:6 *239:3 7.83e-06
48 *203:2 *239:18 5.75e-06
49 *203:3 *239:17 5.75e-06
50 *203:7 *239:6 1.57e-05
51 *203:8 *239:7 1.57e-05
52 *203:9 *239:8 0.00013045
53 *203:10 *239:9 0.000130450013

*RES
1 *203:4 *706:Y 2.24956
2 *203:11 *203:4 8.76106
3 *203:12 *203:11 195.317
4 *203:20 *203:12 8.76106
5 *203:3 *963:A 8.76106
6 *203:19 *203:20 2.8041
7 *203:3 *203:2 2.69249
8 *203:7 *203:19 8.76106
9 *203:2 *203:6 1.07072
10 *203:8 *203:7 228.568771
11 *203:6 *203:5 2.52159
12 *203:14 *203:17 1.01492
13 *203:17 *203:8 8.76106
14 *203:5 *203:10 1.07072
15 *203:18 *203:17 8.76106
16 *203:10 *203:9 187.665
17 *203:16 *203:18 12.6812
18 *203:15 *203:9 8.76106
19 *203:15 *203:16 8.76106
20 *203:13 *203:15 1.01492
*END

*D_NET *204 0.0222126

*CONN
*I *707:Y O *C 1780.13 846.11 *L 0 *D INVX3
*I *706:A I *C 1779.1 639.445 *L 0.0012 *D INVX3

*CAP
1 *707:Y 2.26695e-05
2 *706:A 2.50262e-05
3 *204:2 3.90543e-05
4 *204:3 3.07497e-05
5 *204:4 0.000331513
6 *204:5 0.000336226
7 *204:6 0.000187865
8 *204:7 9.0229e-05
9 *204:8 0.000183039
10 *204:9 0.000255537
11 *204:10 0.000255537
12 *204:11 9.0229e-05
13 *204:12 0.00734996
14 *204:13 0.00735467
15 *204:14 6.82328e-05
16 *204:15 6.34072e-05
17 *204:13 *262:4 0.00130133
18 *204:12 *262:5 0.00130132995
19 *204:13 *187:2 0.00107477
20 *204:12 *187:3 0.00107477
21 *204:13 *192:2 0.00019478
22 *204:12 *192:3 0.00019478
23 *204:13 *192:4 0.00013385
24 *204:12 *192:5 0.00013385
25 *204:13 *192:6 4.81e-06
26 *204:12 *192:7 4.81e-06
27 *204:13 *192:8 5.042e-05
28 *204:12 *192:9 5.042e-05
29 *204:13 *192:10 2.73e-06
30 *204:12 *192:11 2.73e-06
31 *204:13 *192:12 1.82e-06
32 *204:12 *192:13 1.81998991e-06

*RES
1 *204:15 *707:Y 8.7571
2 *204:14 *204:15 3.6479
3 *204:10 *204:14 1.0773
4 *204:9 *204:10 16.1809
5 *204:9 *204:13 1.0773
6 *204:12 *204:13 699.032227
7 *204:11 *204:12 8.7571
8 *204:7 *204:11 3.63724
9 *204:8 *204:7 8.7571
10 *204:6 *204:8 11.061
11 *204:5 *204:6 1.0773
12 *204:4 *204:5 22.2394
13 *204:3 *204:4 8.7571
14 *204:2 *706:A 1.35463
15 *204:2 *204:3 1.31197
*END

*D_NET *205 0.0195184

*CONN
*I *708:Y O *C 1779.95 1041.405 *L 0 *D INVX4
*I *707:A I *C 1779.5 846.735 *L 0.0012 *D INVX3

*CAP
1 *708:Y 7.68142e-05
2 *707:A 9.87939e-06
3 *205:2 0.000593912
4 *205:3 0.000593912
5 *205:4 2.6728e-05
6 *205:5 3.13996e-05
7 *205:6 0.000821062
8 *205:7 0.000821062
9 *205:8 0.00501896
10 *205:9 0.00501429
11 *205:10 0.000694085
12 *205:11 0.000694085
13 *205:13 2.2669e-05
14 *205:14 1.79208e-05
15 *205:15 0.00011526
16 *205:16 0.00011526
17 *205:17 8.97569e-05
18 *205:18 0.00083814
19 *205:19 0.00083814
20 *205:20 0.00096527
21 *205:21 0.00096527
22 *205:21 *306:28 7.131e-05
23 *205:20 *306:29 7.131e-05
24 *205:6 *306:28 4.12e-06
25 *205:7 *306:29 4.12e-06
26 *205:10 *306:28 9.891e-05
27 *205:11 *306:29 9.891e-05
28 *205:19 *306:30 6.011e-05
29 *205:18 *306:31 6.011e-05
30 *205:8 *306:30 8.58e-06
31 *205:9 *306:31 8.58e-06
32 *205:8 *306:32 0.00032329
33 *205:9 *306:33 0.00032329
34 *205:10 *306:26 1.09e-05
35 *205:11 *306:27 1.08999835e-05

*RES
1 *708:Y *205:17 4.26323
2 *205:4 *205:17 8.76134
3 *205:5 *205:4 1.33886
4 *205:5 *205:2 1.06874
5 *205:3 *205:2 42.3856
6 *205:6 *205:3 1.06874
7 *205:7 *205:6 60.5601
8 *205:7 *205:21 1.06874
9 *205:20 *205:21 76.2037
10 *205:10 *205:20 1.06874
11 *205:11 *205:10 62.7622
12 *205:11 *205:19 1.07462
13 *205:18 *205:19 65.3636
14 *205:8 *205:18 1.07462
15 *205:9 *205:8 384.841431
16 *205:16 *205:9 8.76134
17 *205:13 *707:A 0.616583
18 *205:15 *205:16 6.3185
19 *205:14 *205:13 8.76134
20 *205:14 *205:15 8.76134
21 *205:12 *205:14 1.01589
*END

*D_NET *206 0.0221694

*CONN
*I *709:Y O *C 1781.15 1263.705 *L 0 *D INVX4
*I *708:A I *C 1779.785 1041.525 *L 0.00161 *D INVX4

*CAP
1 *709:Y 2.26898e-05
2 *708:A 9.84653e-06
3 *206:2 2.67997e-05
4 *206:3 3.14233e-05
5 *206:4 3.14233e-05
6 *206:5 2.67997e-05
7 *206:6 0.000147527
8 *206:7 0.000147527
9 *206:8 0.00213182
10 *206:9 0.00213182
11 *206:10 0.000644734
12 *206:11 0.000644734
13 *206:12 0.00561124
14 *206:13 0.00561124
15 *206:14 0.000978403
16 *206:15 0.000978403
17 *206:16 2.86834e-05
18 *206:17 2.38885e-05
19 *206:18 2.26898e-05
20 *206:19 0.000142218
21 *206:20 1.68675e-05
22 *206:21 1.68675e-05
23 *206:22 0.000349509
24 *206:23 0.0003448
25 *206:24 0.000142218
26 *206:8 *292:7 0.00017557
27 *206:9 *292:8 0.00017557
28 *206:12 *292:9 0.00014486
29 *206:13 *292:10 0.00014486
30 *206:12 *292:11 0.00016779
31 *206:13 *292:12 0.00016779
32 *206:12 *292:13 2.255e-05
33 *206:13 *292:14 2.255e-05
34 *206:12 *292:14 2.3e-06
35 *206:13 *292:15 2.3e-06
36 *206:12 *292:16 1.286e-05
37 *206:13 *292:17 1.286e-05
38 *206:12 *292:17 1.042e-05
39 *206:13 *292:18 1.042e-05
40 *206:23 *292:9 1.96e-05
41 *206:22 *292:10 1.95999959e-05
42 *206:8 *214:2 0.00017557
43 *206:9 *214:3 0.00017557
44 *206:10 *214:2 4.606e-05
45 *206:11 *214:3 4.606e-05
46 *206:12 *214:2 2.87e-06
47 *206:13 *214:3 2.87e-06
48 *206:14 *214:2 0.00016934
49 *206:15 *214:3 0.00016934
50 *206:16 *214:2 2.87e-06
51 *206:17 *214:3 2.86999508e-06

*RES
1 *206:23 *709:Y 8.76056
2 *206:22 *206:23 25.5472
3 *206:22 *206:12 1.06884
4 *206:13 *206:12 429.739319
5 *206:13 *206:8 1.06884
6 *206:9 *206:8 183.749
7 *206:14 *206:9 1.0754
8 *206:15 *206:14 85.3236
9 *206:15 *206:10 1.0754
10 *206:11 *206:10 49.8224
11 *206:16 *206:11 1.06884
12 *206:17 *206:16 1.33769
13 *206:20 *708:A 0.609829
14 *206:24 *206:17 8.76056
15 *206:20 *206:21 0.65573
16 *206:19 *206:24 7.31139
17 *206:18 *206:21 0.609829
18 *206:2 *206:19 8.76056
19 *206:5 *206:18 8.76056
20 *206:3 *206:2 1.33769
21 *206:5 *206:4 1.33769
22 *206:6 *206:3 1.06884
23 *206:7 *206:4 1.06884
24 *206:7 *206:6 8.7081
*END

*D_NET *207 0.0305778

*CONN
*I *958:B I *C 1779.7 646.285 *L 0.000212 *D NAND4XL
*I *710:Y O *C 1779.5649 952.895 *L 0 *D CLKINVX6

*CAP
1 *958:B 2.26043e-05
2 *710:Y 2.26043e-05
3 *207:2 1.89511e-05
4 *207:3 1.89511e-05
5 *207:4 0.01496334
6 *207:5 0.0110521
7 *207:6 0.00393839
8 *207:7 0.000140649
9 *207:8 0.000145215
10 *207:10 1.78094e-05
11 *207:11 1.87227e-05
12 *207:12 1.87227e-05
13 *207:13 3.2194e-05
14 *207:14 6.53012e-05
15 *207:15 6.98677e-05
16 *207:16 3.2194e-05

*RES
1 *207:2 *958:B 8.76646
2 *207:3 *207:2 0.730539
3 *207:16 *207:3 8.76646
4 *207:13 *207:16 1.4012
5 *207:14 *207:13 8.76646
6 *207:14 *207:15 7.83233
7 *207:5 *207:15 1.06587
8 *207:4 *207:6 281.796
9 *207:5 *207:4 784.861877
10 *207:8 *207:6 1.07784
11 *207:8 *207:7 9.43712
12 *207:12 *207:7 8.76646
13 *207:11 *207:12 0.706586
14 *207:10 *207:11 8.76646
15 *207:10 *710:Y 8.76646
16 *207:9 *207:10 1.01796
*END

*D_NET *208 0.0219493

*CONN
*I *711:Y O *C 1780.15 1180.075 *L 0 *D INVX4
*I *710:A I *C 1778.7 952.755 *L 0.00241 *D CLKINVX6

*CAP
1 *711:Y 2.26487e-05
2 *710:A 2.26487e-05
3 *208:2 0.00539739
4 *208:3 0.0053838
5 *208:4 0.000380086
6 *208:5 0.00039837
7 *208:6 0.000111843
8 *208:7 0.000116455
9 *208:8 7.03345e-05
10 *208:9 7.03345e-05
11 *208:10 0.000993495
12 *208:11 0.000993495
13 *208:12 0.000214463
14 *208:13 0.000214463
15 *208:14 0.000772032
16 *208:15 0.000772032
17 *208:16 0.00185999
18 *208:17 0.00185999
19 *208:18 0.000192226
20 *208:19 0.000192226
21 *208:2 *263:2 2.87e-06
22 *208:3 *263:3 2.87e-06
23 *208:19 *263:2 2.719e-05
24 *208:18 *263:3 2.719e-05
25 *208:17 *263:2 0.00031541
26 *208:16 *263:3 0.00031541
27 *208:15 *263:4 2.911e-05
28 *208:14 *263:5 2.911e-05
29 *208:15 *263:6 5.534e-05
30 *208:14 *263:7 5.534e-05
31 *208:13 *263:2 1.187e-05
32 *208:12 *263:3 1.187e-05
33 *208:11 *263:2 7.406e-05
34 *208:10 *263:3 7.406e-05
35 *208:9 *263:8 1.44e-06
36 *208:8 *263:9 1.44000352e-06
37 *208:2 *264:5 3.25e-06
38 *208:3 *264:4 3.25e-06
39 *208:4 *264:3 2.173e-05
40 *208:5 *264:2 2.173e-05
41 *208:2 *264:3 0.00041326
42 *208:3 *264:2 0.000413260013

*RES
1 *208:4 *711:Y 8.7632
2 *208:5 *208:4 28.2722
3 *208:2 *208:5 2.14124
4 *208:3 *208:2 433.111084
5 *208:13 *208:3 1.07062
6 *208:12 *208:13 14.7375
7 *208:12 *208:19 1.07062
8 *208:18 *208:19 14.1163
9 *208:11 *208:18 1.07062
10 *208:10 *208:11 78.3996
11 *208:10 *208:17 1.07062
12 *208:16 *208:17 154.896
13 *208:9 *208:16 1.07062
14 *208:8 *208:9 9.61573
15 *208:8 *208:15 1.07062
16 *208:14 *208:15 60.6419
17 *208:7 *208:14 1.07062
18 *208:6 *208:7 13.6471
19 *710:A *208:6 8.7632
*END

*D_NET *209 0.0208783

*CONN
*I *712:Y O *C 1780.15 1402.375 *L 0 *D INVX4
*I *711:A I *C 1779.985 1179.955 *L 0.00161 *D INVX4

*CAP
1 *712:Y 2.27232e-05
2 *711:A 2.27232e-05
3 *209:2 0.00886406
4 *209:3 0.00886406
5 *209:4 0.000928809
6 *209:5 0.000928809
7 *209:6 2.44815e-05
8 *209:7 1.98828e-05
9 *209:8 0.000390216
10 *209:9 0.000385617
11 *209:2 *222:2 0.00013393
12 *209:3 *222:3 0.00013393
13 *209:2 *222:4 5.634e-05
14 *209:3 *222:5 5.634e-05
15 *209:2 *222:6 2.324e-05
16 *209:3 *222:7 2.32399882e-05

*RES
1 *209:9 *712:Y 8.75575
2 *209:8 *209:9 27.3343
3 *209:8 *209:2 1.06701
4 *209:3 *209:2 685.564026
5 *209:4 *209:3 1.07747
6 *209:5 *209:4 68.2049
7 *209:6 *209:5 1.07747
8 *209:7 *209:6 0.847331
9 *711:A *209:7 8.75575
*END

*D_NET *210 0.00432331

*CONN
*I *713:Y O *C 1780.53 1447.1899 *L 0 *D INVX1
*I *712:A I *C 1779.985 1402.255 *L 0.00161 *D INVX4

*CAP
1 *713:Y 4.0135e-05
2 *712:A 2.26727e-05
3 *210:2 0.00041337
4 *210:3 0.000431658
5 *210:4 0.00169039
6 *210:5 5.29803e-05
7 *210:6 0.0016721

*RES
1 *210:5 *713:Y 2.45075
2 *210:6 *210:5 8.76032
3 *210:4 *210:6 125.380325
4 *210:3 *210:4 2.14082
5 *210:2 *210:3 29.5046
6 *712:A *210:2 8.76032
*END

*D_NET *211 0.022466

*CONN
*I *961:A I *C 1776.5 333.925 *L 0.000212 *D NAND4XL
*I *714:Y O *C 1779.015 555.59 *L 0 *D CLKINVX4

*CAP
1 *961:A 2.00706e-05
2 *714:Y 2.26787e-05
3 *211:2 0.000187326
4 *211:3 0.000187326
5 *211:4 0.00743123
6 *211:5 0.000162493
7 *211:6 0.00742658
8 *211:7 3.29974e-05
9 *211:8 2.24519e-05
10 *211:9 2.7101e-05
11 *211:10 4.89859e-05
12 *211:11 4.89859e-05
13 *211:12 0.000162493
14 *211:13 2.67608e-05
15 *211:14 3.15233e-05
16 *211:15 5.86243e-05
17 *211:16 5.86243e-05
18 *211:17 0.000786269
19 *211:18 0.000786269
20 *211:19 0.00203155
21 *211:20 0.00202691
22 *211:11 *261:6 2.3e-06
23 *211:10 *261:7 2.3e-06
24 *211:9 *261:8 1.07e-06
25 *211:8 *261:9 1.07e-06
26 *211:6 *261:10 5.452e-05
27 *211:4 *261:11 5.452e-05
28 *211:6 *261:6 0.00032139
29 *211:4 *261:7 0.00032139
30 *211:6 *261:4 5.364e-05
31 *211:4 *261:5 5.364e-05
32 *211:3 *261:8 6.4e-06
33 *211:2 *261:9 6.40002111e-06

*RES
1 *211:20 *714:Y 8.76435
2 *211:19 *211:20 150.258
3 *211:16 *211:19 1.06903
4 *211:15 *211:16 3.36829
5 *211:15 *211:18 1.06903
6 *211:17 *211:18 56.5653
7 *211:14 *211:17 1.06903
8 *211:13 *211:14 1.34901
9 *211:12 *211:13 8.76435
10 *211:5 *211:12 8.5183
11 *211:6 *211:5 8.76435
12 *211:4 *211:6 556.031311
13 *211:7 *961:A 1.21326
14 *211:4 *211:11 1.06903
15 *211:8 *211:7 8.76435
16 *211:10 *211:11 2.68106
17 *211:8 *211:9 1.49325
18 *211:3 *211:10 1.06903
19 *211:2 *211:9 1.06903
20 *211:2 *211:3 11.5472
*END

*D_NET *212 0.0224654

*CONN
*I *715:Y O *C 1780.35 773.095 *L 0 *D INVX4
*I *714:A I *C 1778.5 555.845 *L 0.00161 *D CLKINVX4

*CAP
1 *715:Y 2.269e-05
2 *714:A 2.269e-05
3 *212:2 0.00382129
4 *212:3 0.00382129
5 *212:4 0.000254777
6 *212:5 0.000254777
7 *212:6 3.1622e-05
8 *212:7 2.69399e-05
9 *212:8 0.00471593
10 *212:9 0.00472061
11 *212:10 0.000158902
12 *212:11 0.000158902
13 *212:13 4.86936e-05
14 *212:14 1.79359e-05
15 *212:15 4.86936e-05
16 *212:8 *200:4 0.00073959
17 *212:9 *200:5 0.00073959
18 *212:2 *200:11 7.529e-05
19 *212:3 *200:10 7.529e-05
20 *212:2 *200:4 2.348e-05
21 *212:3 *200:5 2.348e-05
22 *212:2 *200:2 0.00032988
23 *212:3 *200:3 0.00032988
24 *212:10 *200:4 8.93e-06
25 *212:11 *200:5 8.93e-06
26 *212:2 *200:7 1.516e-05
27 *212:3 *200:6 1.51600764e-05
28 *212:8 *191:14 0.0002279
29 *212:9 *191:15 0.0002279
30 *212:8 *191:18 0.00034741
31 *212:9 *191:19 0.00034741
32 *212:8 *191:16 6.9e-07
33 *212:9 *191:17 6.89975603e-07
34 *212:2 *203:11 0.00040144
35 *212:3 *203:12 0.000401440011

*RES
1 *212:7 *714:A 8.76083
2 *212:7 *212:6 1.34782
3 *212:6 *212:5 1.07302
4 *212:5 *212:4 16.8281
5 *212:4 *212:3 1.07302
6 *212:3 *212:2 314.866
7 *212:11 *212:2 1.07302
8 *212:11 *212:10 10.7826
9 *212:10 *212:9 1.07302
10 *212:9 *212:8 428.789978
11 *212:13 *212:8 8.76083
12 *212:13 *212:15 4.966
13 *212:14 *212:15 8.76083
14 *212:14 *715:Y 8.76083
15 *212:12 *212:14 1.01414
*END

*D_NET *213 0.0249354

*CONN
*I *716:Y O *C 1780.75 1017.465 *L 0 *D INVX4
*I *715:A I *C 1780.1851 772.975 *L 0.00161 *D INVX4

*CAP
1 *716:Y 2.26786e-05
2 *715:A 2.26786e-05
3 *213:2 2.243e-05
4 *213:3 2.243e-05
5 *213:4 2.05401e-05
6 *213:5 2.05401e-05
7 *213:6 0.00209424
8 *213:7 0.00209424
9 *213:8 0.00184567
10 *213:9 0.00184567
11 *213:10 0.000258169
12 *213:11 0.000258169
13 *213:12 0.0026262
14 *213:13 0.0026262
15 *213:14 0.00129179
16 *213:15 0.00129179
17 *213:16 0.000266325
18 *213:17 0.00026165
19 *213:19 0.00325931
20 *213:20 4.05331e-05
21 *213:21 0.00325464
22 *213:22 0.000715571
23 *213:23 0.000715571
24 *213:24 1.79042e-05
25 *213:25 4.05331e-05

*RES
1 *213:3 *715:A 8.76093
2 *213:3 *213:2 0.925046
3 *213:5 *213:2 8.76093
4 *213:5 *213:4 0.705601
5 *213:17 *213:4 8.76093
6 *213:17 *213:16 18.1633
7 *213:16 *213:13 1.07022
8 *213:13 *213:12 189.185
9 *213:15 *213:12 1.07359
10 *213:15 *213:14 84.51
11 *213:14 *213:9 1.07022
12 *213:9 *213:8 133.963
13 *213:11 *213:8 1.07022
14 *213:11 *213:10 18.5144
15 *213:10 *213:7 1.07022
16 *213:7 *213:6 149.675
17 *213:6 *213:22 1.07359
18 *213:22 *213:23 49.8579
19 *213:19 *213:23 1.07359
20 *213:19 *213:21 221.254745
21 *213:20 *213:21 8.76093
22 *213:20 *213:25 2.1033
23 *213:24 *213:25 8.76093
24 *213:24 *716:Y 8.76093
25 *213:18 *213:24 1.01282
*END

*D_NET *214 0.0116299

*CONN
*I *717:Y O *C 1780.9301 1135.48 *L 0 *D INVX2
*I *716:A I *C 1780.585 1017.585 *L 0.00161 *D INVX4

*CAP
1 *717:Y 2.27057e-05
2 *716:A 2.27057e-05
3 *214:2 0.00487875
4 *214:3 0.00487875
5 *214:4 4.98037e-05
6 *214:5 6.18638e-05
7 *214:6 4.98037e-05
8 *214:7 6.18638e-05
9 *214:2 *206:8 0.00017557
10 *214:3 *206:9 0.00017557
11 *214:2 *206:10 4.606e-05
12 *214:3 *206:11 4.606e-05
13 *214:2 *206:12 2.87e-06
14 *214:3 *206:13 2.87e-06
15 *214:2 *206:14 0.00016934
16 *214:3 *206:15 0.00016934
17 *214:2 *206:16 2.87e-06
18 *214:3 *206:17 2.86999508e-06
19 *214:2 *202:2 0.00017845
20 *214:3 *202:3 0.00017845
21 *214:2 *202:2 0.00020546
22 *214:3 *202:3 0.00020546
23 *214:6 *202:2 2.119e-05
24 *214:4 *202:3 2.11899795e-05

*RES
1 *214:2 *717:Y 8.76048
2 *214:3 *214:2 413.636108
3 *214:7 *214:3 8.76048
4 *214:5 *214:7 2.41734
5 *214:6 *214:5 8.76048
6 *214:4 *214:6 4.02048
7 *716:A *214:4 8.76048
*END

*D_NET *215 0.0175615

*CONN
*I *964:B I *C 1776.9 272.175 *L 0.000212 *D NAND4XL
*I *718:Y O *C 1782.33 449.39 *L 0 *D INVX3

*CAP
1 *964:B 2.26696e-05
2 *718:Y 2.26696e-05
3 *215:2 0.00483452
4 *215:3 0.00483925
5 *215:4 2.23004e-05
6 *215:5 5.02127e-05
7 *215:6 2.23004e-05
8 *215:7 5.02127e-05
9 *215:8 3.30813e-05
10 *215:9 3.78072e-05
11 *215:10 0.00262996
12 *215:11 0.00262996
13 *215:12 0.000260589
14 *215:13 7.39899e-05
15 *215:14 7.39899e-05
16 *215:15 8.78722e-05
17 *215:16 8.78722e-05
18 *215:17 0.000260589
19 *215:18 0.000254608
20 *215:19 0.000254608
21 *215:9 *261:16 1.6e-06
22 *215:8 *261:17 1.6e-06
23 *215:11 *261:18 4.5e-06
24 *215:10 *261:19 4.5e-06
25 *215:6 *261:16 7.83e-06
26 *215:4 *261:17 7.83e-06
27 *215:2 *261:6 0.00032035
28 *215:3 *261:7 0.00032035
29 *215:11 *261:20 1.21e-06
30 *215:10 *261:21 1.21e-06
31 *215:11 *261:2 0.00017067
32 *215:10 *261:3 0.000170670012

*RES
1 *215:19 *718:Y 8.75891
2 *215:18 *215:19 17.341
3 *215:17 *215:18 8.75891
4 *215:12 *215:17 14.606
5 *215:2 *215:12 8.75891
6 *215:3 *215:2 386.288086
7 *215:3 *215:16 1.07276
8 *215:15 *215:16 5.54063
9 *215:11 *215:15 1.07276
10 *215:10 *215:11 210.084
11 *215:10 *215:14 1.10813
12 *215:13 *215:14 4.851
13 *215:9 *215:13 1.10813
14 *215:8 *215:9 1.39105
15 *215:7 *215:8 8.75891
16 *215:5 *215:7 1.8626
17 *215:6 *215:5 8.75891
18 *215:4 *215:6 1.50304
19 *964:B *215:4 8.75891
*END

*D_NET *216 0.0169297

*CONN
*I *719:Y O *C 1782.33 630.65 *L 0 *D INVX3
*I *718:A I *C 1781.7 450.015 *L 0.0012 *D INVX3

*CAP
1 *719:Y 2.2588e-05
2 *718:A 2.2588e-05
3 *216:2 0.000341115
4 *216:3 0.000345947
5 *216:4 0.00791607
6 *216:5 0.00791136
7 *216:5 *319:9 0.00016536
8 *216:4 *319:10 0.00016536
9 *216:3 *319:9 1.96e-05
10 *216:2 *319:10 1.95999904e-05

*RES
1 *216:5 *719:Y 8.76223
2 *216:4 *216:5 611.545837
3 *216:3 *216:4 1.07312
4 *216:2 *216:3 25.4562
5 *718:A *216:2 8.76223
*END

*D_NET *217 0.0214666

*CONN
*I *720:Y O *C 1782.55 855.175 *L 0 *D INVX4
*I *719:A I *C 1781.7 631.275 *L 0.0012 *D INVX3

*CAP
1 *720:Y 2.27011e-05
2 *719:A 2.27011e-05
3 *217:2 0.000329506
4 *217:3 0.000334128
5 *217:4 5.63451e-05
6 *217:5 0.000595871
7 *217:6 0.00119766
8 *217:7 0.00119766
9 *217:8 3.84016e-05
10 *217:9 3.84016e-05
11 *217:10 0.000566781
12 *217:11 9.95044e-05
13 *217:12 0.000117788
14 *217:13 0.00028893
15 *217:14 0.00028893
16 *217:15 0.00253641
17 *217:16 0.00252282
18 *217:17 0.00445425
19 *217:18 0.00445425
20 *217:19 7.27932e-05
21 *217:20 7.27932e-05
22 *217:2 *220:2 2.308e-05
23 *217:3 *220:3 2.308e-05
24 *217:20 *220:2 4.36e-06
25 *217:19 *220:3 4.36e-06
26 *217:6 *220:2 9.574e-05
27 *217:7 *220:3 9.574e-05
28 *217:4 *220:2 3.64e-06
29 *217:5 *220:3 3.64e-06
30 *217:5 *220:2 3.721e-05
31 *217:10 *220:3 3.721e-05
32 *217:18 *220:2 0.00031715
33 *217:17 *220:3 0.000317150007
34 *217:2 *190:9 2.308e-05
35 *217:3 *190:8 2.308e-05
36 *217:4 *190:9 7.18e-06
37 *217:5 *190:8 7.18e-06
38 *217:6 *190:7 9.55e-05
39 *217:7 *190:6 9.55e-05
40 *217:8 *190:7 6.59e-06
41 *217:9 *190:6 6.59e-06
42 *217:5 *190:5 4.262e-05
43 *217:10 *190:4 4.26200031e-05
44 *217:18 *244:2 0.00019889
45 *217:17 *244:3 0.00019889
46 *217:18 *244:2 3.38e-05
47 *217:17 *244:3 3.38e-05
48 *217:16 *244:2 0.00016764
49 *217:15 *244:3 0.00016764
50 *217:14 *244:2 1.522e-05
51 *217:13 *244:3 1.522e-05
52 *217:12 *244:2 7.25e-06
53 *217:11 *244:3 7.24999604e-06

*RES
1 *217:2 *720:Y 8.76207
2 *217:3 *217:2 26.2747
3 *217:4 *217:3 1.0722
4 *217:5 *217:4 4.04093
5 *217:10 *217:5 46.5255
6 *217:10 *217:20 1.0722
7 *217:19 *217:20 4.69809
8 *217:8 *217:19 1.0722
9 *217:9 *217:8 3.98905
10 *217:9 *217:6 1.0722
11 *217:7 *217:6 101.819
12 *217:18 *217:7 1.0722
13 *217:17 *217:18 377.783691
14 *217:14 *217:17 1.0722
15 *217:13 *217:14 21.0693
16 *217:13 *217:16 1.0722
17 *217:15 *217:16 200.179
18 *217:12 *217:15 2.1444
19 *217:11 *217:12 7.41317
20 *719:A *217:11 8.76207
*END

*D_NET *218 0.0215245

*CONN
*I *721:Y O *C 1782.55 1079.025 *L 0 *D INVX4
*I *720:A I *C 1782.385 855.055 *L 0.00161 *D INVX4

*CAP
1 *721:Y 2.27141e-05
2 *720:A 9.93028e-06
3 *218:2 0.00317255
4 *218:3 0.00321832
5 *218:4 0.00748024
6 *218:5 0.00743436
7 *218:7 2.28282e-05
8 *218:8 1.79202e-05
9 *218:9 5.93534e-05
10 *218:10 1.35828e-05
11 *218:11 1.36969e-05
12 *218:12 5.93534e-05

*RES
1 *218:2 *721:Y 8.76107
2 *218:3 *218:2 235.996
3 *218:4 *218:3 4.01584
4 *218:10 *720:A 0.612017
5 *218:5 *218:4 549.440552
6 *218:10 *218:11 0.343736
7 *218:12 *218:5 8.76107
8 *218:7 *218:11 0.612017
9 *218:9 *218:12 3.50443
10 *218:8 *218:7 8.76107
11 *218:8 *218:9 8.76107
12 *218:6 *218:8 0.217979
*END

*D_NET *219 0.0183346

*CONN
*I *960:A I *C 1777.5 518.605 *L 0.000212 *D NAND4XL
*I *722:Y O *C 1782.53 695.63 *L 0 *D INVX3

*CAP
1 *960:A 2.09133e-05
2 *722:Y 2.26761e-05
3 *219:2 0.00525117
4 *219:3 0.00524652
5 *219:4 0.000291745
6 *219:5 0.000296473
7 *219:6 0.00289061
8 *219:7 0.00289061
9 *219:8 3.37338e-05
10 *219:9 0.000302883
11 *219:10 0.000302883
12 *219:6 *239:14 0.00039222
13 *219:7 *239:13 0.000392219988

*RES
1 *219:4 *722:Y 8.76188
2 *219:5 *219:4 20.1355
3 *219:5 *219:2 1.07116
4 *219:3 *219:2 394.381042
5 *219:10 *219:3 8.76188
6 *219:9 *219:10 19.642
7 *219:6 *219:9 8.76188
8 *219:7 *219:6 212.205
9 *219:8 *960:A 1.22763
10 *219:8 *219:7 8.76188
*END

*D_NET *220 0.0304802

*CONN
*I *723:Y O *C 1782.365 1012.085 *L 0 *D CLKINVX6
*I *722:A I *C 1781.9 696.255 *L 0.0012 *D INVX3

*CAP
1 *723:Y 2.27113e-05
2 *722:A 2.27113e-05
3 *220:2 0.00870402
4 *220:3 0.00870402
5 *220:4 4.70165e-05
6 *220:5 4.70165e-05
7 *220:6 0.0058481
8 *220:7 0.0058481
9 *220:10 1.793e-05
10 *220:11 6.00323e-05
11 *220:12 5.92354e-05
12 *220:13 1.793e-05
13 *220:14 6.00323e-05
14 *220:15 5.92354e-05
15 *220:2 *217:2 2.308e-05
16 *220:3 *217:3 2.308e-05
17 *220:2 *217:20 4.36e-06
18 *220:3 *217:19 4.36e-06
19 *220:2 *217:6 9.574e-05
20 *220:3 *217:7 9.574e-05
21 *220:2 *217:4 3.64e-06
22 *220:3 *217:5 3.64e-06
23 *220:2 *217:5 3.721e-05
24 *220:3 *217:10 3.721e-05
25 *220:2 *217:18 0.00031715
26 *220:3 *217:17 0.000317150007

*RES
1 *220:4 *723:Y 8.75959
2 *220:5 *220:4 2.69445
3 *220:9 *220:13 1.01438
4 *220:13 *220:5 8.75959
5 *220:6 *220:13 8.75959
6 *220:7 *220:6 420.313
7 *220:12 *220:7 8.75959
8 *220:12 *220:15 3.50806
9 *220:2 *220:15 8.75959
10 *220:3 *220:2 692.483521
11 *220:14 *220:3 8.75959
12 *220:11 *220:14 3.50806
13 *220:10 *722:A 8.75959
14 *220:10 *220:11 8.75959
15 *220:8 *220:10 1.01438
*END

*D_NET *221 0.0220764

*CONN
*I *724:Y O *C 1781.75 1236.345 *L 0 *D INVX4
*I *723:A I *C 1781.5 1012.225 *L 0.00241 *D CLKINVX6

*CAP
1 *724:Y 7.18213e-05
2 *723:A 2.26376e-05
3 *221:2 0.00533652
4 *221:3 0.00533188
5 *221:4 0.00425293
6 *221:5 0.00425765
7 *221:6 0.000787266
8 *221:7 8.31401e-05
9 *221:8 0.000787266
10 *221:9 7.972e-05
11 *221:10 7.972e-05
12 *221:11 8.31401e-05
13 *221:12 8.46058e-05
14 *221:2 *292:25 2.43e-06
15 *221:3 *292:26 2.43e-06
16 *221:4 *292:9 8.427e-05
17 *221:5 *292:10 8.427e-05
18 *221:4 *292:11 0.00016084
19 *221:5 *292:12 0.00016084
20 *221:2 *292:7 0.00015642
21 *221:3 *292:8 0.00015642
22 *221:10 *292:16 5.03e-06
23 *221:9 *292:17 5.02997071e-06

*RES
1 *221:6 *723:A 8.76233
2 *221:6 *221:8 57.1892
3 *221:7 *221:8 8.76233
4 *221:7 *221:11 3.62496
5 *221:3 *221:11 8.76233
6 *221:3 *221:2 393.320587
7 *221:9 *221:2 1.06828
8 *221:9 *221:10 6.3797
9 *221:10 *221:5 1.06828
10 *221:5 *221:4 335.681
11 *221:12 *221:4 8.76233
12 *724:Y *221:12 4.26113
*END

*D_NET *222 0.00862104

*CONN
*I *725:Y O *C 1781.53 1325.4 *L 0 *D INVX2
*I *724:A I *C 1781.585 1236.465 *L 0.00161 *D INVX4

*CAP
1 *725:Y 2.268e-05
2 *724:A 9.85536e-06
3 *222:2 0.0020701
4 *222:3 0.00202926
5 *222:4 0.000886635
6 *222:5 0.00088196
7 *222:6 0.000352203
8 *222:7 0.000352203
9 *222:8 2.27116e-05
10 *222:9 1.68678e-05
11 *222:10 1.68678e-05
12 *222:11 0.000789124
13 *222:12 0.000743606
14 *222:2 *209:2 0.00013393
15 *222:3 *209:3 0.00013393
16 *222:4 *209:2 5.634e-05
17 *222:5 *209:3 5.634e-05
18 *222:6 *209:2 2.324e-05
19 *222:7 *209:3 2.32399882e-05

*RES
1 *222:9 *724:A 0.609841
2 *222:12 *725:Y 8.76022
3 *222:9 *222:10 0.65483
4 *222:11 *222:12 54.2909
5 *222:8 *222:10 0.609841
6 *222:2 *222:11 4.28639
7 *222:5 *222:8 8.76022
8 *222:3 *222:2 163.797394
9 *222:5 *222:4 68.5872
10 *222:6 *222:3 1.06972
11 *222:7 *222:4 1.06972
12 *222:7 *222:6 26.3931
*END

*D_NET *223 0.017336

*CONN
*I *961:C I *C 1776.9 333.735 *L 0.000211 *D NAND4XL
*I *726:Y O *C 1603.13 336.53 *L 0 *D INVX3

*CAP
1 *961:C 2.26522e-05
2 *726:Y 0.000118764
3 *223:2 0.000135401
4 *223:3 0.000135401
5 *223:5 0.00013169
6 *223:6 1.7917e-05
7 *223:7 0.00838706
8 *223:8 0.00838706

*RES
1 *223:3 *961:C 8.75676
2 *223:3 *223:2 13.3191
3 *223:8 *223:2 8.75676
4 *223:7 *223:8 602.818176
5 *726:Y *223:5 7.19305
6 *223:6 *223:7 8.75676
7 *223:6 *223:5 8.75676
8 *223:4 *223:6 1.02101
*END

*D_NET *224 0.0215173

*CONN
*I *727:Y O *C 1383.15 336.885 *L 0 *D INVX4
*I *726:A I *C 1602.5 337.155 *L 0.0012 *D INVX3

*CAP
1 *727:Y 5.90186e-05
2 *726:A 2.25994e-05
3 *224:2 0.01065506
4 *224:5 7.18629e-05
5 *224:6 1.78844e-05
6 *224:7 0.00140685
7 *224:8 1.78844e-05
8 *224:9 0.00926609

*RES
1 *224:8 *726:A 8.76504
2 *224:4 *224:8 1.02395
3 *224:9 *224:8 8.76504
4 *224:2 *224:9 671.057678
5 *224:7 *224:2 101.351
6 *727:Y *224:5 3.59407
7 *224:6 *224:7 8.76504
8 *224:6 *224:5 8.76504
9 *224:3 *224:6 1.02395
*END

*D_NET *225 0.0301977

*CONN
*I *728:Y O *C 1074.965 337.295 *L 0 *D CLKINVX6
*I *727:A I *C 1382.985 337.005 *L 0.00161 *D INVX4

*CAP
1 *728:Y 2.25584e-05
2 *727:A 9.92568e-06
3 *225:2 0.01478363
4 *225:3 0.0108876
5 *225:6 1.78211e-05
6 *225:7 0.000270475
7 *225:8 1.78211e-05
8 *225:9 0.00391388
9 *225:10 0.000260775
10 *225:11 1.30839e-05

*RES
1 *225:11 *727:A 0.600838
2 *225:10 *225:11 0.300419
3 *225:7 *225:10 15.5737
4 *225:8 *225:7 8.76022
5 *225:5 *225:8 1.02142
6 *225:9 *225:8 8.76022
7 *225:2 *225:9 283.115
8 *225:3 *225:2 787.530212
9 *225:6 *225:3 8.76022
10 *225:6 *728:Y 8.76022
11 *225:4 *225:6 1.02142
*END

*D_NET *226 0.0302135

*CONN
*I *729:Y O *C 767.765 337.295 *L 0 *D CLKINVX6
*I *728:A I *C 1074.1 337.155 *L 0.00241 *D CLKINVX6

*CAP
1 *729:Y 2.27251e-05
2 *728:A 2.27251e-05
3 *226:2 1.94156e-05
4 *226:3 1.94156e-05
5 *226:4 0.00504431
6 *226:5 0.01445911
7 *226:7 1.78712e-05
8 *226:8 0.0094329
9 *226:4 *332:13 0.0001644
10 *226:5 *332:14 0.0001644
11 *226:5 *332:14 0.0004231
12 *226:8 *332:5 0.000423100008

*RES
1 *226:2 *728:A 8.76445
2 *226:3 *226:2 0.730371
3 *226:4 *226:3 8.76445
4 *226:5 *226:4 375.836
5 *226:8 *226:5 714.411621
6 *226:7 *226:8 8.76445
7 *226:7 *729:Y 8.76445
8 *226:6 *226:7 1.0247
*END

*D_NET *227 0.0230309

*CONN
*I *957:C I *C 1776.1 579.975 *L 0.000211 *D NAND4XL
*I *730:Y O *C 1559.13 579.35 *L 0 *D INVX3

*CAP
1 *957:C 2.26507e-05
2 *730:Y 2.26507e-05
3 *227:2 2.61741e-05
4 *227:3 2.61741e-05
5 *227:4 0.01099565
6 *227:5 4.7147e-05
7 *227:6 0.01099565
8 *227:7 5.18449e-05
9 *227:8 2.24829e-05
10 *227:6 *155:4 0.00016949
11 *227:4 *155:2 0.00016949
12 *227:6 *155:2 0.00024081
13 *227:4 *155:3 0.000240810006

*RES
1 *227:8 *957:C 8.75641
2 *227:7 *227:8 1.07555
3 *227:5 *227:7 3.01623
4 *227:6 *227:5 8.75641
5 *227:4 *227:6 766.168213
6 *227:2 *730:Y 8.75641
7 *227:3 *227:4 8.75641
8 *227:3 *227:2 1.35613
*END

*D_NET *228 0.0217552

*CONN
*I *731:Y O *C 1338.35 579.705 *L 0 *D INVX4
*I *730:A I *C 1558.5 579.975 *L 0.0012 *D INVX3

*CAP
1 *731:Y 2.26933e-05
2 *730:A 2.26933e-05
3 *228:2 0.01077683
4 *228:3 2.59821e-05
5 *228:4 0.00366249
6 *228:5 2.59821e-05
7 *228:6 4.32487e-05
8 *228:7 0.0071321
9 *228:8 4.32487e-05

*RES
1 *228:8 *730:A 8.76465
2 *228:6 *228:8 3.82271
3 *228:7 *228:6 8.76465
4 *228:2 *228:7 516.546936
5 *228:4 *228:2 264.902
6 *228:5 *731:Y 8.76465
7 *228:3 *228:4 8.76465
8 *228:3 *228:5 1.3478
*END

*D_NET *229 0.0298632

*CONN
*I *732:Y O *C 1208.165 761.375 *L 0 *D CLKINVX6
*I *731:A I *C 1338.1851 579.825 *L 0.00161 *D INVX4

*CAP
1 *732:Y 2.26785e-05
2 *731:A 9.85506e-06
3 *229:2 0.00641256
4 *229:3 0.00777671
5 *229:4 0.00778134
6 *229:5 0.00017941
7 *229:6 0.00017466
8 *229:7 4.23886e-05
9 *229:8 0.000498808
10 *229:9 0.00641256
11 *229:10 0.000498808
12 *229:11 1.68605e-05
13 *229:12 3.65706e-05

*RES
1 *229:11 *731:A 0.598099
2 *229:11 *229:12 0.64341
3 *229:7 *229:12 1.7943
4 *229:6 *732:Y 8.76306
5 *229:8 *229:7 8.76306
6 *229:5 *229:6 11.4364
7 *229:8 *229:10 35.6503
8 *229:4 *229:5 1.07839
9 *229:9 *229:10 8.76306
10 *229:3 *229:4 593.894287
11 *229:2 *229:9 386.499
12 *229:2 *229:3 8.76306
*END

*D_NET *230 0.0305226

*CONN
*I *733:Y O *C 1207.365 1079.4351 *L 0 *D CLKINVX6
*I *732:A I *C 1207.3 761.235 *L 0.00241 *D CLKINVX6

*CAP
1 *733:Y 2.25821e-05
2 *732:A 1.96464e-05
3 *230:2 3.25182e-05
4 *230:3 0.0107665
5 *230:4 0.01479916
6 *230:5 0.00405529
7 *230:6 0.000415736
8 *230:7 0.00041122

*RES
1 *230:7 *733:Y 8.76243
2 *230:6 *230:7 29.5882
3 *230:5 *230:6 1.0803
4 *230:4 *230:5 308.99
5 *230:3 *230:4 786.650574
6 *230:2 *732:A 1.20033
7 *230:2 *230:3 8.76243
*END

*D_NET *231 0.0224003

*CONN
*I *960:C I *C 1777.9 518.415 *L 0.000211 *D NAND4XL
*I *734:Y O *C 1780.35 745.735 *L 0 *D INVX4

*CAP
1 *960:C 2.26783e-05
2 *734:Y 2.26783e-05
3 *231:2 0.00163256
4 *231:3 0.00163256
5 *231:4 0.000133245
6 *231:5 0.000133245
7 *231:6 3.73133e-05
8 *231:7 3.73133e-05
9 *231:8 5.19482e-05
10 *231:9 5.19482e-05
11 *231:10 0.000271983
12 *231:11 0.000271983
13 *231:12 0.00257132
14 *231:13 0.00257132
15 *231:14 0.0011994
16 *231:15 0.0011994
17 *231:16 0.00243658
18 *231:17 0.00243658
19 *231:18 5.99131e-05
20 *231:19 5.99131e-05
21 *231:20 5.14774e-05
22 *231:21 5.14774e-05
23 *231:22 0.00053243
24 *231:23 0.000537099
25 *231:25 2.25606e-05
26 *231:26 3.7941e-05
27 *231:27 3.7941e-05
28 *231:28 7.76477e-05
29 *231:29 0.000684037
30 *231:30 0.000684037
31 *231:31 0.00030137
32 *231:32 0.00030137
33 *231:33 1.78915e-05
34 *231:34 7.76477e-05
35 *231:27 *203:11 2.87e-06
36 *231:26 *203:12 2.87e-06
37 *231:12 *203:11 0.0001857
38 *231:13 *203:12 0.0001857
39 *231:32 *203:7 1.827e-05
40 *231:31 *203:8 1.827e-05
41 *231:30 *203:7 4.834e-05
42 *231:29 *203:8 4.834e-05
43 *231:27 *203:7 2.04e-06
44 *231:26 *203:8 2.04e-06
45 *231:18 *203:7 1.111e-05
46 *231:19 *203:8 1.111e-05
47 *231:2 *203:7 0.00028173
48 *231:3 *203:8 0.00028173
49 *231:4 *203:7 1.686e-05
50 *231:5 *203:8 1.686e-05
51 *231:6 *203:7 1.124e-05
52 *231:7 *203:8 1.12399998e-05
53 *231:10 *239:4 1.621e-05
54 *231:11 *239:5 1.621e-05
55 *231:14 *239:4 8.894e-05
56 *231:15 *239:5 8.894e-05
57 *231:16 *239:4 0.00018603
58 *231:17 *239:5 0.00018603
59 *231:12 *239:4 0.00020647
60 *231:13 *239:5 0.000206470005

*RES
1 *231:25 *960:C 8.76155
2 *231:25 *231:9 1.07291
3 *231:9 *231:8 2.69069
4 *231:8 *231:5 1.07291
5 *231:5 *231:4 10.1035
6 *231:7 *231:4 1.07291
7 *231:7 *231:6 2.19964
8 *231:6 *231:3 1.07291
9 *231:3 *231:2 137.972
10 *231:2 *231:29 1.07291
11 *231:29 *231:30 52.5155
12 *231:19 *231:30 1.07291
13 *231:19 *231:18 5.99687
14 *231:18 *231:31 1.07291
15 *231:31 *231:32 21.5457
16 *231:26 *231:32 1.07291
17 *231:26 *231:27 2.99339
18 *231:13 *231:27 1.07291
19 *231:13 *231:12 220.421219
20 *231:12 *231:11 1.07291
21 *231:11 *231:10 21.3977
22 *231:17 *231:10 1.07291
23 *231:17 *231:16 194.967
24 *231:16 *231:21 1.07291
25 *231:21 *231:20 4.77934
26 *231:15 *231:20 1.07291
27 *231:15 *231:14 94.3187
28 *231:14 *231:23 1.07291
29 *231:23 *231:22 36.8692
30 *231:28 *231:22 8.76155
31 *231:28 *231:34 5.41501
32 *231:33 *231:34 8.76155
33 *231:33 *734:Y 8.76155
34 *231:24 *231:33 1.01574
*END

*D_NET *232 0.0230487

*CONN
*I *735:Y O *C 1780.35 973.005 *L 0 *D INVX4
*I *734:A I *C 1780.1851 745.615 *L 0.00161 *D INVX4

*CAP
1 *735:Y 2.26658e-05
2 *734:A 9.93152e-06
3 *232:2 0.00144202
4 *232:3 0.00143733
5 *232:4 3.69233e-05
6 *232:5 3.69233e-05
7 *232:6 0.000143855
8 *232:7 0.000143855
9 *232:8 2.17519e-05
10 *232:9 2.17519e-05
11 *232:10 0.000563903
12 *232:11 0.000563903
13 *232:12 0.000343277
14 *232:13 0.000347969
15 *232:14 0.000869526
16 *232:15 0.000869526
17 *232:16 0.0026731
18 *232:17 0.0026731
19 *232:18 0.000385867
20 *232:19 0.000385867
21 *232:20 5.08153e-05
22 *232:21 5.55068e-05
23 *232:22 4.11275e-05
24 *232:23 4.11275e-05
25 *232:24 0.00399302
26 *232:25 0.00398833
27 *232:26 3.98479e-05
28 *232:27 1.35873e-05
29 *232:28 3.07085e-05
30 *232:29 6.92769e-05
31 *232:30 6.92769e-05
32 *232:18 *317:26 2.011e-05
33 *232:19 *317:27 2.011e-05
34 *232:20 *317:26 6e-06
35 *232:21 *317:27 6e-06
36 *232:22 *317:26 3.38e-06
37 *232:23 *317:27 3.38e-06
38 *232:24 *317:49 9.6e-07
39 *232:25 *317:28 9.6e-07
40 *232:24 *317:28 0.00021385
41 *232:25 *317:29 0.00021385
42 *232:16 *317:20 0.00020321
43 *232:17 *317:21 0.000203210002
44 *232:10 *306:30 8.289e-05
45 *232:11 *306:31 8.289e-05
46 *232:2 *306:17 1.728e-05
47 *232:3 *306:18 1.728e-05
48 *232:2 *306:32 0.00019314
49 *232:3 *306:33 0.00019314
50 *232:12 *306:30 2.255e-05
51 *232:13 *306:31 2.255e-05
52 *232:14 *306:32 5.987e-05
53 *232:15 *306:33 5.987e-05
54 *232:14 *306:15 8.24e-06
55 *232:15 *306:16 8.23999238e-06

*RES
1 *232:12 *735:Y 8.76244
2 *232:13 *232:12 25.6076
3 *232:13 *232:10 1.07464
4 *232:11 *232:10 44.5745
5 *232:11 *232:16 1.07464
6 *232:17 *232:16 213.44
7 *232:4 *232:17 1.07005
8 *232:5 *232:4 2.30542
9 *232:14 *232:5 1.07005
10 *232:15 *232:14 67.9778
11 *232:15 *232:2 1.07005
12 *232:3 *232:2 115.501
13 *232:29 *232:3 8.76244
14 *232:29 *232:30 3.50865
15 *232:20 *232:30 8.76244
16 *232:21 *232:20 3.3525
17 *232:21 *232:18 1.07464
18 *232:19 *232:18 28.1748
19 *232:22 *232:19 1.07464
20 *232:23 *232:22 2.0115
21 *232:24 *232:23 1.07464
22 *232:25 *232:24 300.97226
23 *232:6 *232:25 8.76244
24 *232:7 *232:6 7.72913
25 *232:27 *734:A 0.610799
26 *232:8 *232:7 8.76244
27 *232:27 *232:28 0.344435
28 *232:9 *232:8 0.803683
29 *232:26 *232:28 1.21701
30 *232:26 *232:9 8.76244
*END

*D_NET *233 0.0323284

*CONN
*I *736:Y O *C 1514.965 1018.925 *L 0 *D CLKINVX6
*I *735:A I *C 1780.1851 973.125 *L 0.00161 *D INVX4

*CAP
1 *736:Y 2.26722e-05
2 *735:A 1.13361e-05
3 *233:2 0.01375761
4 *233:3 0.0115387
5 *233:4 0.00134942
6 *233:5 0.00134942
7 *233:6 3.25388e-05
8 *233:7 3.7787e-05
9 *233:8 7.2425e-05
10 *233:9 4.09359e-05
11 *233:10 7.2425e-05
12 *233:11 9.11086e-05
13 *233:12 4.21955e-05
14 *233:13 9.11086e-05
15 *233:14 3.65274e-05
16 *233:15 3.52678e-05
17 *233:16 3.4848e-05
18 *233:17 3.94664e-05
19 *233:18 3.16991e-05
20 *233:19 0.00224476
21 *233:20 2.68707e-05
22 *233:21 0.000684784
23 *233:22 0.000684784

*RES
1 *233:6 *735:A 0.610417
2 *233:6 *233:7 1.98385
3 *233:8 *233:7 8.75948
4 *233:8 *233:10 7.85403
5 *233:9 *233:10 8.75948
6 *233:9 *233:12 1.21066
7 *233:11 *233:12 1.3124
8 *233:11 *233:13 4.26274
9 *233:13 *233:14 1.3124
10 *233:14 *233:15 1.21066
11 *233:16 *233:15 8.75948
12 *233:16 *233:17 1.34292
13 *233:17 *233:21 1.06823
14 *233:21 *233:22 49.1182
15 *233:18 *233:22 1.06823
16 *233:18 *233:20 1.34292
17 *233:5 *736:Y 8.75948
18 *233:19 *233:20 8.75948
19 *233:4 *233:5 101.563
20 *233:2 *233:19 134.353
21 *233:3 *233:2 666.737671
22 *233:3 *233:4 8.75948
*END

*D_NET *234 0.0301385

*CONN
*I *737:Y O *C 1206.765 1018.925 *L 0 *D CLKINVX6
*I *736:A I *C 1514.1 1019.065 *L 0.00241 *D CLKINVX6

*CAP
1 *737:Y 0.000209416
2 *736:A 0.00022011
3 *234:2 0.01460008
4 *234:5 0.000222337
5 *234:6 1.78226e-05
6 *234:7 0.00988287
7 *234:8 0.000233031
8 *234:9 1.78226e-05
9 *234:10 0.00473503

*RES
1 *234:8 *736:A 13.1848
2 *234:9 *234:8 8.76071
3 *234:4 *234:9 1.02682
4 *234:10 *234:9 8.76071
5 *234:2 *234:10 342.552
6 *234:7 *234:2 715.88739
7 *737:Y *234:5 12.584
8 *234:6 *234:7 8.76071
9 *234:6 *234:5 8.76071
10 *234:3 *234:6 1.02682
*END

*D_NET *235 0.0296045

*CONN
*I *963:B I *C 1777.7 461.605 *L 0.000212 *D NAND4XL
*I *738:Y O *C 1640.765 631.415 *L 0 *D CLKINVX6

*CAP
1 *963:B 2.26391e-05
2 *738:Y 2.26391e-05
3 *235:2 0.00679297
4 *235:3 0.00683241
5 *235:4 0.0068371
6 *235:5 0.000336978
7 *235:6 0.000332283
8 *235:7 0.000799461
9 *235:8 0.00679297
10 *235:9 0.000767537
11 *235:10 4.97642e-05
12 *235:11 1.784e-05

*RES
1 *235:11 *963:B 8.76038
2 *235:10 *235:11 0.668974
3 *235:6 *738:Y 8.76038
4 *235:7 *235:10 3.20948
5 *235:5 *235:6 23.5415
6 *235:7 *235:9 55.6842
7 *235:4 *235:5 1.0831
8 *235:8 *235:9 8.76038
9 *235:3 *235:4 521.92749
10 *235:2 *235:8 411.491
11 *235:2 *235:3 8.76038
*END

*D_NET *236 0.029667

*CONN
*I *739:Y O *C 1639.765 930.005 *L 0 *D CLKINVX6
*I *738:A I *C 1639.9 631.275 *L 0.00241 *D CLKINVX6

*CAP
1 *739:Y 2.27741e-05
2 *738:A 2.95387e-05
3 *236:2 4.23914e-05
4 *236:3 0.0112536
5 *236:4 0.01477724
6 *236:5 0.00354149

*RES
1 *236:5 *739:Y 8.76243
2 *236:4 *236:5 269.979
3 *236:3 *236:4 786.650574
4 *236:2 *738:A 1.8005
5 *236:2 *236:3 8.76243
*END

*D_NET *237 0.0293819

*CONN
*I *740:Y O *C 1638.765 1233.335 *L 0 *D CLKINVX6
*I *739:A I *C 1638.9 930.145 *L 0.00241 *D CLKINVX6

*CAP
1 *740:Y 2.26816e-05
2 *739:A 2.26816e-05
3 *237:2 0.00680663
4 *237:3 0.00683856
5 *237:4 0.0073634
6 *237:5 0.00739522
7 *237:2 *315:2 0.0004664
8 *237:3 *315:3 0.000466399999

*RES
1 *237:4 *739:A 8.76059
2 *237:4 *237:5 521.525
3 *237:2 *740:Y 8.76059
4 *237:3 *237:5 3.24091
5 *237:3 *237:2 553.115601
*END

*D_NET *238 0.0230103

*CONN
*I *741:Y O *C 1638.95 1448.385 *L 0 *D INVX4
*I *740:A I *C 1637.9 1233.1949 *L 0.00241 *D CLKINVX6

*CAP
1 *741:Y 2.2593e-05
2 *740:A 2.2593e-05
3 *238:2 0.0110313
4 *238:3 0.01104949
5 *238:4 0.000451185
6 *238:5 0.000432976

*RES
1 *238:2 *741:Y 8.75778
2 *238:3 *238:2 731.146606
3 *238:4 *238:3 2.16434
4 *238:5 *238:4 31.0706
5 *740:A *238:5 8.75778
*END

*D_NET *239 0.0309973

*CONN
*I *963:C I *C 1777.9 461.605 *L 0.000211 *D NAND4XL
*I *742:Y O *C 1777.5649 776.105 *L 0 *D CLKINVX6

*CAP
1 *963:C 2.26547e-05
2 *742:Y 2.26547e-05
3 *239:2 0.000654481
4 *239:3 0.000649783
5 *239:4 0.00684183
6 *239:5 0.00684183
7 *239:6 0.000269873
8 *239:7 0.000269873
9 *239:8 0.00173794
10 *239:9 0.00173794
11 *239:10 0.00191594
12 *239:11 0.00191594
13 *239:12 3.57047e-05
14 *239:13 0.00238845
15 *239:14 0.00238845
16 *239:15 3.14243e-05
17 *239:16 2.68307e-05
18 *239:17 3.53915e-05
19 *239:18 3.53915e-05
20 *239:19 3.57047e-05
21 *239:18 *203:5 3.92e-06
22 *239:17 *203:6 3.92e-06
23 *239:14 *203:7 0.00041436
24 *239:13 *203:8 0.00041436
25 *239:2 *203:9 0.00010177
26 *239:3 *203:10 0.00010177
27 *239:2 *203:5 7.83e-06
28 *239:3 *203:6 7.83e-06
29 *239:18 *203:2 5.75e-06
30 *239:17 *203:3 5.75e-06
31 *239:6 *203:7 1.57e-05
32 *239:7 *203:8 1.57e-05
33 *239:8 *203:9 0.00013045
34 *239:9 *203:10 0.000130450013
35 *239:4 *231:10 1.621e-05
36 *239:5 *231:11 1.621e-05
37 *239:4 *231:14 8.894e-05
38 *239:5 *231:15 8.894e-05
39 *239:4 *231:16 0.00018603
40 *239:5 *231:17 0.00018603
41 *239:4 *231:12 0.00020647
42 *239:5 *231:13 0.000206470005
43 *239:14 *219:6 0.00039222
44 *239:13 *219:7 0.000392219988

*RES
1 *239:16 *742:Y 8.75799
2 *239:15 *239:16 1.33859
3 *239:11 *239:15 1.06924
4 *239:10 *239:11 142.993
5 *239:10 *239:4 1.06924
6 *239:17 *963:C 8.75799
7 *239:5 *239:4 534.914795
8 *239:17 *239:18 3.89335
9 *239:6 *239:5 1.06924
10 *239:19 *239:18 8.75799
11 *239:7 *239:6 19.6708
12 *239:12 *239:19 1.40389
13 *239:7 *239:14 1.06924
14 *239:3 *239:12 8.75799
15 *239:13 *239:14 224.451
16 *239:3 *239:2 51.9276
17 *239:8 *239:13 1.06924
18 *239:9 *239:2 1.06924
19 *239:9 *239:8 138.226
*END

*D_NET *240 0.0289078

*CONN
*I *743:Y O *C 1652.165 952.895 *L 0 *D CLKINVX6
*I *742:A I *C 1776.7 776.245 *L 0.00241 *D CLKINVX6

*CAP
1 *743:Y 2.26964e-05
2 *742:A 2.26964e-05
3 *240:2 0.00621203
4 *240:3 0.00704459
5 *240:4 0.00704932
6 *240:5 0.000266655
7 *240:6 0.00026203
8 *240:7 0.000907855
9 *240:8 0.00621203
10 *240:9 0.000907855

*RES
1 *240:6 *743:Y 8.76311
2 *240:7 *742:A 8.76311
3 *240:5 *240:6 18.1592
4 *240:7 *240:9 67.0386
5 *240:4 *240:5 1.07689
6 *240:8 *240:9 8.76311
7 *240:3 *240:4 538.742126
8 *240:2 *240:8 377.019
9 *240:2 *240:3 8.76311
*END

*D_NET *241 0.0302575

*CONN
*I *744:Y O *C 1352.5649 952.895 *L 0 *D CLKINVX6
*I *743:A I *C 1651.3 952.755 *L 0.00241 *D CLKINVX6

*CAP
1 *744:Y 2.26628e-05
2 *743:A 2.26628e-05
3 *241:2 0.01428086
4 *241:3 0.0121105
5 *241:5 1.78688e-05
6 *241:6 0.00296927
7 *241:7 1.7433e-05
8 *241:8 0.000798865
9 *241:9 1.7433e-05

*RES
1 *241:9 *743:A 8.76243
2 *241:7 *241:9 0.672187
3 *241:8 *241:7 8.76243
4 *241:3 *241:8 57.1599
5 *241:2 *241:3 786.650574
6 *241:6 *241:2 214.632
7 *241:5 *241:6 8.76243
8 *241:5 *744:Y 8.76243
9 *241:4 *241:5 1.02028
*END

*D_NET *242 0.0210458

*CONN
*I *745:Y O *C 1137.55 952.485 *L 0 *D INVX4
*I *744:A I *C 1351.7 952.755 *L 0.00241 *D CLKINVX6

*CAP
1 *745:Y 2.27129e-05
2 *744:A 2.27129e-05
3 *242:2 0.01048232
4 *242:3 0.01048232
5 *242:6 1.79144e-05
6 *242:7 1.79144e-05

*RES
1 *242:7 *744:A 8.76194
2 *242:5 *242:7 1.01991
3 *242:2 *242:7 8.76194
4 *242:3 *242:2 759.553467
5 *242:6 *242:3 8.76194
6 *242:6 *745:Y 8.76194
7 *242:4 *242:6 1.01991
*END

*D_NET *243 0.0216169

*CONN
*I *962:C I *C 1779.9 398.715 *L 0.000211 *D NAND4XL
*I *746:Y O *C 1780.13 622.97 *L 0 *D INVX3

*CAP
1 *962:C 2.2677e-05
2 *746:Y 2.2677e-05
3 *243:2 0.00964554
4 *243:3 0.00965025
5 *243:4 0.000337652
6 *243:5 0.000333087
7 *243:2 *319:9 0.00023944
8 *243:3 *319:10 0.000239439993
9 *243:2 *199:2 0.00054024
10 *243:3 *199:3 0.00054024
11 *243:4 *199:7 2.87e-06
12 *243:5 *199:6 2.87e-06
13 *243:4 *199:5 1.996e-05
14 *243:5 *199:4 1.99599454e-05

*RES
1 *243:2 *746:Y 8.76202
2 *243:3 *243:2 765.636597
3 *243:4 *243:3 1.07481
4 *243:5 *243:4 24.9075
5 *962:C *243:5 8.76202
*END

*D_NET *244 0.0211118

*CONN
*I *747:Y O *C 1779.55 832.785 *L 0 *D INVX4
*I *746:A I *C 1779.5 622.345 *L 0.0012 *D INVX3

*CAP
1 *747:Y 9.85201e-05
2 *746:A 9.95011e-06
3 *244:2 0.00918423
4 *244:3 0.00918423
5 *244:5 2.28432e-05
6 *244:6 1.79382e-05
7 *244:7 0.00010833
8 *244:8 0.00010833
9 *244:9 0.000111413
10 *244:2 *217:18 0.00019889
11 *244:3 *217:17 0.00019889
12 *244:2 *217:18 3.38e-05
13 *244:3 *217:17 3.38e-05
14 *244:2 *217:16 0.00016764
15 *244:3 *217:15 0.00016764
16 *244:2 *217:14 1.522e-05
17 *244:3 *217:13 1.522e-05
18 *244:2 *217:12 7.25e-06
19 *244:3 *217:11 7.24999604e-06
20 *244:2 *262:4 0.00071028
21 *244:3 *262:5 0.000710280028

*RES
1 *747:Y *244:9 5.52314
2 *244:2 *244:9 8.76399
3 *244:3 *244:2 747.860657
4 *244:8 *244:3 8.76399
5 *244:5 *746:A 0.604807
6 *244:7 *244:8 6.31053
7 *244:6 *244:5 8.76399
8 *244:6 *244:7 8.76399
9 *244:4 *244:6 1.01562
*END

*D_NET *245 0.0248141

*CONN
*I *748:Y O *C 1605.55 890.925 *L 0 *D INVX4
*I *747:A I *C 1779.385 832.905 *L 0.00161 *D INVX4

*CAP
1 *748:Y 2.26234e-05
2 *747:A 9.77917e-06
3 *245:2 0.00956534
4 *245:3 0.00175193
5 *245:4 0.00175193
6 *245:5 0.000906398
7 *245:6 0.000906398
8 *245:7 3.0943e-05
9 *245:8 3.76571e-05
10 *245:9 6.34916e-05
11 *245:10 6.81623e-05
12 *245:11 6.93299e-05
13 *245:12 0.00956534
14 *245:13 6.46593e-05

*RES
1 *245:7 *747:A 0.611693
2 *245:7 *245:8 1.98601
3 *245:9 *245:8 8.7623
4 *245:9 *245:10 3.64632
5 *245:5 *245:10 1.07245
6 *245:5 *245:6 63.9973
7 *245:6 *245:11 1.07245
8 *245:11 *245:13 3.65427
9 *245:4 *748:Y 8.7623
10 *245:12 *245:13 8.7623
11 *245:3 *245:4 132.499
12 *245:2 *245:12 520.621887
13 *245:2 *245:3 8.7623
*END

*D_NET *246 0.0222806

*CONN
*I *749:Y O *C 1387.15 890.925 *L 0 *D INVX4
*I *748:A I *C 1605.385 891.045 *L 0.00161 *D INVX4

*CAP
1 *749:Y 1.97943e-05
2 *748:A 9.89713e-06
3 *246:2 0.01081014
4 *246:5 3.26605e-05
5 *246:6 1.78148e-05
6 *246:7 0.00125067
7 *246:8 0.000270357
8 *246:9 1.78148e-05
9 *246:10 0.00957745
10 *246:11 0.000260789
11 *246:12 1.31962e-05

*RES
1 *246:12 *748:A 0.604001
2 *246:11 *246:12 0.302
3 *246:8 *246:11 15.5832
4 *246:9 *246:8 8.75801
5 *246:4 *246:9 1.0268
6 *246:10 *246:9 8.75801
7 *246:2 *246:10 659.729919
8 *246:7 *246:2 90.0263
9 *749:Y *246:5 1.19793
10 *246:6 *246:7 8.75801
11 *246:6 *246:5 8.75801
12 *246:3 *246:6 1.0268
*END

*D_NET *247 0.0213941

*CONN
*I *750:Y O *C 1168.55 890.925 *L 0 *D INVX4
*I *749:A I *C 1386.985 891.045 *L 0.00161 *D INVX4

*CAP
1 *750:Y 0.000316899
2 *749:A 9.89833e-06
3 *247:4 0.000329691
4 *247:5 1.7817e-05
5 *247:6 0.0099798
6 *247:7 0.000369284
7 *247:8 1.7817e-05
8 *247:9 0.0099798
9 *247:10 0.000359842
10 *247:11 1.32485e-05

*RES
1 *247:11 *749:A 0.59503
2 *247:10 *247:11 0.308534
3 *247:7 *247:10 21.5753
4 *247:8 *247:7 8.76016
5 *247:3 *247:8 1.02477
6 *247:9 *247:8 8.76016
7 *247:6 *247:9 722.145996
8 *750:Y *247:4 19.1732
9 *247:5 *247:6 8.76016
10 *247:5 *247:4 8.76016
11 *247:2 *247:5 1.02477
*END

*D_NET *248 0.00863512

*CONN
*I *751:Y O *C 1081.33 891.06 *L 0 *D INVX2
*I *750:A I *C 1168.385 891.045 *L 0.00161 *D INVX4

*CAP
1 *751:Y 2.26594e-05
2 *750:A 9.9252e-06
3 *248:3 2.59928e-05
4 *248:4 2.59928e-05
5 *248:5 0.00245051
6 *248:6 0.000255546
7 *248:7 0.00245452
8 *248:8 0.000255546
9 *248:9 0.00135073
10 *248:10 4.25473e-05
11 *248:11 1.79028e-05
12 *248:12 0.00134676
13 *248:13 3.30341e-05
14 *248:14 1.32586e-05
15 *248:7 *352:5 0.00015095
16 *248:5 *352:6 0.00015095
17 *248:8 *352:7 1.415e-05
18 *248:6 *352:8 1.415e-05

*RES
1 *248:3 *751:Y 8.76016
2 *248:3 *248:4 1.07963
3 *248:5 *248:4 8.76016
4 *248:5 *248:7 187.677536
5 *248:6 *248:7 1.02522
6 *248:14 *750:A 0.59852
7 *248:6 *248:8 19.5507
8 *248:13 *248:14 0.306419
9 *248:8 *248:9 1.02522
10 *248:10 *248:13 1.79842
11 *248:9 *248:12 96.9946
12 *248:11 *248:10 8.76016
13 *248:11 *248:12 8.76016
14 *248:2 *248:11 1.02235
*END

*D_NET *249 0.0102923

*CONN
*I *962:B I *C 1779.7 398.715 *L 0.000212 *D NAND4XL
*I *752:Y O *C 1675.73 398.58 *L 0 *D INVX2

*CAP
1 *962:B 2.26707e-05
2 *752:Y 2.26707e-05
3 *249:4 1.79184e-05
4 *249:5 0.00510558
5 *249:6 1.79184e-05
6 *249:7 0.00510558

*RES
1 *249:6 *962:B 8.76076
2 *249:3 *249:6 1.01258
3 *249:7 *249:6 8.76076
4 *249:5 *249:7 366.631592
5 *249:4 *249:5 8.76076
6 *249:4 *752:Y 8.76076
7 *249:2 *249:4 1.02377
*END

*D_NET *250 0.0231144

*CONN
*I *753:Y O *C 1571.95 526.855 *L 0 *D INVX4
*I *752:A I *C 1675.3 398.715 *L 0.000801 *D INVX2

*CAP
1 *753:Y 2.26786e-05
2 *752:A 2.26786e-05
3 *250:2 0.0051427
4 *250:3 0.004332
5 *250:4 0.004332
6 *250:5 0.00205983
7 *250:6 0.0051427
8 *250:7 0.00205983

*RES
1 *250:5 *752:A 8.76193
2 *250:5 *250:7 156.038
3 *250:4 *753:Y 8.76193
4 *250:6 *250:7 8.76193
5 *250:3 *250:4 295.94
6 *250:2 *250:6 310.390045
7 *250:2 *250:3 8.76193
*END

*D_NET *251 0.0200791

*CONN
*I *754:Y O *C 1571.95 742.315 *L 0 *D INVX4
*I *753:A I *C 1571.785 526.735 *L 0.00161 *D INVX4

*CAP
1 *754:Y 2.2665e-05
2 *753:A 2.2665e-05
3 *251:2 9.85628e-05
4 *251:3 0.000116754
5 *251:4 0.000146279
6 *251:5 0.000141656
7 *251:6 0.00977203
8 *251:7 0.00975846

*RES
1 *251:5 *754:Y 8.76377
2 *251:4 *251:5 8.741
3 *251:4 *251:7 1.08124
4 *251:6 *251:7 745.898926
5 *251:3 *251:6 2.16249
6 *251:2 *251:3 6.8972
7 *753:A *251:2 8.76377
*END

*D_NET *252 0.0208792

*CONN
*I *755:Y O *C 1571.95 955.905 *L 0 *D INVX4
*I *754:A I *C 1571.785 742.195 *L 0.00161 *D INVX4

*CAP
1 *755:Y 2.27105e-05
2 *754:A 2.27105e-05
3 *252:2 0.000625286
4 *252:3 0.000657111
5 *252:4 0.00979167
6 *252:5 0.0097597

*RES
1 *252:5 *755:Y 8.7593
2 *252:4 *252:5 709.579224
3 *252:3 *252:4 3.23737
4 *252:2 *252:3 45.9078
5 *754:A *252:2 8.7593
*END

*D_NET *253 0.0200513

*CONN
*I *756:Y O *C 1571.95 1171.365 *L 0 *D INVX4
*I *755:A I *C 1571.785 956.025 *L 0.00161 *D INVX4

*CAP
1 *756:Y 2.27395e-05
2 *755:A 2.27395e-05
3 *253:2 5.79633e-05
4 *253:3 7.62441e-05
5 *253:4 0.00974007
6 *253:5 0.0097264
7 *253:6 0.000204952
8 *253:7 0.000200196

*RES
1 *253:7 *756:Y 8.76276
2 *253:6 *253:7 13.4506
3 *253:5 *253:6 1.07832
4 *253:4 *253:5 743.881165
5 *253:3 *253:4 2.15664
6 *253:2 *253:3 3.70034
7 *755:A *253:2 8.76276
*END

*D_NET *254 0.0196111

*CONN
*I *757:Y O *C 1571.35 1383.405 *L 0 *D INVX4
*I *756:A I *C 1571.785 1171.485 *L 0.00161 *D INVX4

*CAP
1 *757:Y 2.269e-05
2 *756:A 2.269e-05
3 *254:2 0.00978284
4 *254:3 0.00978284

*RES
1 *254:3 *757:Y 8.76504
2 *254:2 *254:3 748.925537
3 *756:A *254:2 8.76504
*END

*D_NET *255 0.0232447

*CONN
*I *961:B I *C 1776.7 333.735 *L 0.000212 *D NAND4XL
*I *758:Y O *C 1555.15 331.915 *L 0 *D INVX4

*CAP
1 *961:B 2.27072e-05
2 *758:Y 5.93882e-05
3 *255:2 0.01144707
4 *255:3 0.01144707
5 *255:5 7.23138e-05
6 *255:6 1.78165e-05
7 *255:7 6.20082e-05
8 *255:8 8.0174e-05
9 *255:9 3.61569e-05

*RES
1 *255:9 *961:B 8.75745
2 *255:8 *255:9 2.14202
3 *255:7 *255:8 7.82253
4 *255:2 *255:7 8.75745
5 *255:3 *255:2 775.578369
6 *758:Y *255:5 3.59765
7 *255:6 *255:3 8.75745
8 *255:6 *255:5 8.75745
9 *255:4 *255:6 1.01776
*END

*D_NET *256 0.0206041

*CONN
*I *759:Y O *C 1510.35 504.465 *L 0 *D INVX4
*I *758:A I *C 1554.985 331.795 *L 0.00161 *D INVX4

*CAP
1 *759:Y 2.26563e-05
2 *758:A 2.26563e-05
3 *256:2 0.00222173
4 *256:3 0.00710422
5 *256:4 0.00710422
6 *256:5 3.95673e-05
7 *256:6 6.67765e-05
8 *256:7 0.000153933
9 *256:8 0.000158703
10 *256:9 0.000759908
11 *256:10 0.00222173
12 *256:11 0.000727929

*RES
1 *256:7 *758:A 8.75677
2 *256:7 *256:8 9.5943
3 *256:5 *256:8 1.07801
4 *256:5 *256:6 3.94718
5 *256:6 *256:9 3.24233
6 *256:9 *256:11 53.8093
7 *256:4 *759:Y 8.75677
8 *256:10 *256:11 8.75677
9 *256:3 *256:4 543.450256
10 *256:2 *256:10 133.632
11 *256:2 *256:3 8.75677
*END

*D_NET *257 0.0202934

*CONN
*I *760:Y O *C 1510.35 721.795 *L 0 *D INVX4
*I *759:A I *C 1510.1851 504.585 *L 0.00161 *D INVX4

*CAP
1 *760:Y 2.26747e-05
2 *759:A 2.26747e-05
3 *257:2 0.000232152
4 *257:3 0.000250472
5 *257:4 5.09053e-05
6 *257:5 4.62503e-05
7 *257:6 0.00984095
8 *257:7 0.00982729

*RES
1 *257:5 *760:Y 8.76111
2 *257:4 *257:5 2.69573
3 *257:4 *257:7 1.08514
4 *257:6 *257:7 748.589294
5 *257:3 *257:6 2.15886
6 *257:2 *257:3 15.8088
7 *759:A *257:2 8.76111
*END

*D_NET *258 0.0211713

*CONN
*I *761:Y O *C 1510.35 938.805 *L 0 *D INVX4
*I *760:A I *C 1510.1851 721.675 *L 0.00161 *D INVX4

*CAP
1 *761:Y 2.26786e-05
2 *760:A 2.26786e-05
3 *258:2 0.000785096
4 *258:3 0.000817025
5 *258:4 0.00977789
6 *258:5 0.00974596

*RES
1 *258:5 *761:Y 8.7593
2 *258:4 *258:5 709.579224
3 *258:3 *258:4 3.23737
4 *258:2 *258:3 58.0236
5 *760:A *258:2 8.7593
*END

*D_NET *259 0.0200544

*CONN
*I *762:Y O *C 1510.35 1154.265 *L 0 *D INVX4
*I *761:A I *C 1510.1851 938.925 *L 0.00161 *D INVX4

*CAP
1 *762:Y 2.27432e-05
2 *761:A 2.27432e-05
3 *259:2 5.79729e-05
4 *259:3 7.62566e-05
5 *259:4 0.00974167
6 *259:5 0.00972799
7 *259:6 0.000204837
8 *259:7 0.000200229

*RES
1 *259:7 *762:Y 8.76276
2 *259:6 *259:7 13.4506
3 *259:5 *259:6 1.07832
4 *259:4 *259:5 743.881165
5 *259:3 *259:4 2.15664
6 *259:2 *259:3 3.70034
7 *761:A *259:2 8.76276
*END

*D_NET *260 0.0161543

*CONN
*I *763:Y O *C 1510.33 1327.49 *L 0 *D INVX3
*I *762:A I *C 1510.1851 1154.385 *L 0.00161 *D INVX4

*CAP
1 *763:Y 2.2641e-05
2 *762:A 2.2641e-05
3 *260:2 0.000539943
4 *260:3 0.000571795
5 *260:4 0.00727341
6 *260:5 0.00724622
7 *260:6 0.000241171
8 *260:7 0.000236509

*RES
1 *260:7 *763:Y 8.76104
2 *260:6 *260:7 16.1436
3 *260:5 *260:6 1.08244
4 *260:4 *260:5 554.211609
5 *260:3 *260:4 3.23888
6 *260:2 *260:3 39.3485
7 *762:A *260:2 8.76104
*END

*D_NET *261 0.0338892

*CONN
*I *964:C I *C 1777.1 272.175 *L 0.000211 *D NAND4XL
*I *764:Y O *C 1779.765 615.365 *L 0 *D CLKINVX6

*CAP
1 *964:C 2.26741e-05
2 *764:Y 7.73244e-05
3 *261:2 0.00253136
4 *261:3 0.00254489
5 *261:4 0.000717264
6 *261:5 0.000717264
7 *261:6 0.00544302
8 *261:7 0.00544302
9 *261:8 0.000182971
10 *261:9 0.000178319
11 *261:10 0.00185678
12 *261:11 0.00185678
13 *261:12 0.00020307
14 *261:13 0.000207804
15 *261:14 0.00160288
16 *261:15 0.00159823
17 *261:16 8.20585e-05
18 *261:17 6.37033e-05
19 *261:18 7.16766e-05
20 *261:19 7.16766e-05
21 *261:20 2.57471e-05
22 *261:21 3.03982e-05
23 *261:22 1.87705e-05
24 *261:23 0.00204914
25 *261:24 0.00204914
26 *261:25 6.41186e-05
27 *261:26 6.15439e-05
28 *261:27 0.000844588
29 *261:28 0.000225993
30 *261:29 0.000839937
31 *261:30 0.000225993
32 *261:31 9.01979e-05
33 *261:16 *215:9 1.6e-06
34 *261:17 *215:8 1.6e-06
35 *261:18 *215:11 4.5e-06
36 *261:19 *215:10 4.5e-06
37 *261:16 *215:6 7.83e-06
38 *261:17 *215:4 7.83e-06
39 *261:6 *215:2 0.00032035
40 *261:7 *215:3 0.00032035
41 *261:20 *215:11 1.21e-06
42 *261:21 *215:10 1.21e-06
43 *261:2 *215:11 0.00017067
44 *261:3 *215:10 0.000170670012
45 *261:6 *211:11 2.3e-06
46 *261:7 *211:10 2.3e-06
47 *261:8 *211:9 1.07e-06
48 *261:9 *211:8 1.07e-06
49 *261:10 *211:6 5.452e-05
50 *261:11 *211:4 5.452e-05
51 *261:6 *211:6 0.00032139
52 *261:7 *211:4 0.00032139
53 *261:4 *211:6 5.364e-05
54 *261:5 *211:4 5.364e-05
55 *261:8 *211:3 6.4e-06
56 *261:9 *211:2 6.40002111e-06

*RES
1 *764:Y *261:31 4.26044
2 *261:12 *261:31 8.76165
3 *261:13 *261:12 13.4635
4 *261:14 *261:13 1.07013
5 *261:15 *261:14 118.684
6 *261:30 *261:15 8.76165
7 *261:28 *261:30 12.1727
8 *261:17 *964:C 8.76165
9 *261:29 *261:28 8.76165
10 *261:17 *261:16 8.28678
11 *261:27 *261:29 59.2381
12 *261:3 *261:16 2.21382
13 *261:24 *261:27 1.07013
14 *261:3 *261:2 203.919
15 *261:23 *261:24 152.446
16 *261:2 *261:19 1.07013
17 *261:23 *261:10 1.07013
18 *261:19 *261:18 4.68849
19 *261:11 *261:10 147.844
20 *261:21 *261:18 1.07013
21 *261:4 *261:11 1.07013
22 *261:21 *261:20 1.34434
23 *261:5 *261:4 56.8571
24 *261:25 *261:20 8.76165
25 *261:5 *261:6 1.07013
26 *261:25 *261:26 4.06648
27 *261:7 *261:6 438.323242
28 *261:22 *261:26 0.70227
29 *261:8 *261:7 1.07013
30 *261:9 *261:22 8.76165
31 *261:9 *261:8 11.758
*END

*D_NET *262 0.0214145

*CONN
*I *765:Y O *C 1779.55 831.235 *L 0 *D INVX4
*I *764:A I *C 1778.9 615.505 *L 0.00241 *D CLKINVX6

*CAP
1 *765:Y 2.26355e-05
2 *764:A 2.26355e-05
3 *262:2 0.000314782
4 *262:3 0.000314782
5 *262:4 0.00814939
6 *262:5 0.00815063
7 *262:6 3.14658e-05
8 *262:7 2.67397e-05
9 *262:9 3.09683e-05
10 *262:10 6.28072e-05
11 *262:11 3.09683e-05
12 *262:12 1.79094e-05
13 *262:13 7.63636e-05
14 *262:14 7.63636e-05
15 *262:15 6.28072e-05
16 *262:4 *244:2 0.00071028
17 *262:5 *244:3 0.000710280028
18 *262:4 *204:13 0.00130133
19 *262:5 *204:12 0.00130132995

*RES
1 *262:11 *765:Y 8.75608
2 *262:9 *262:11 1.46687
3 *262:10 *262:9 8.75608
4 *262:10 *262:15 6.66861
5 *262:4 *262:15 8.75608
6 *262:5 *262:4 739.482605
7 *262:5 *262:2 1.07194
8 *262:3 *262:2 21.4614
9 *262:6 *262:3 1.07194
10 *262:7 *262:6 1.34275
11 *262:14 *262:7 8.75608
12 *262:13 *262:14 4.20879
13 *262:12 *764:A 8.75608
14 *262:12 *262:13 8.75608
15 *262:8 *262:12 1.01552
*END

*D_NET *263 0.0217729

*CONN
*I *766:Y O *C 1779.55 1050.115 *L 0 *D INVX4
*I *765:A I *C 1779.385 831.115 *L 0.00161 *D INVX4

*CAP
1 *766:Y 2.26617e-05
2 *765:A 1.14277e-05
3 *263:2 0.00316872
4 *263:3 0.00317336469
5 *263:4 0.000439531
6 *263:5 0.000439531
7 *263:6 0.000345397
8 *263:7 0.000345397
9 *263:8 2.11122e-05
10 *263:9 2.11122e-05
11 *263:10 6.97767e-05
12 *263:11 6.51282e-05
13 *263:12 0.000673508
14 *263:13 0.000673508
15 *263:14 6.29492e-05
16 *263:15 6.29492e-05
17 *263:16 4.33865e-05
18 *263:17 4.33865e-05
19 *263:18 4.21275e-05
20 *263:19 4.73087e-05
21 *263:20 7.92191e-05
22 *263:21 0.00313758
23 *263:22 0.00313758
24 *263:23 7.92191e-05
25 *263:24 0.00122751
26 *263:25 0.00122751
27 *263:26 7.6798e-05
28 *263:27 7.6798e-05
29 *263:22 *317:20 4.98e-06
30 *263:21 *317:21 4.98e-06
31 *263:22 *317:20 0.00043207
32 *263:21 *317:21 0.000432070004
33 *263:2 *208:2 2.87e-06
34 *263:3 *208:3 2.87e-06
35 *263:2 *208:19 2.719e-05
36 *263:3 *208:18 2.719e-05
37 *263:2 *208:17 0.00031541
38 *263:3 *208:16 0.00031541
39 *263:4 *208:15 2.911e-05
40 *263:5 *208:14 2.911e-05
41 *263:6 *208:15 5.534e-05
42 *263:7 *208:14 5.534e-05
43 *263:2 *208:13 1.187e-05
44 *263:3 *208:12 1.187e-05
45 *263:2 *208:11 7.406e-05
46 *263:3 *208:10 7.406e-05
47 *263:8 *208:9 1.44e-06
48 *263:9 *208:8 1.44000352e-06
49 *263:22 *188:4 0.00043869
50 *263:21 *188:5 0.00043869
51 *263:25 *188:6 2.308e-05
52 *263:24 *188:7 2.308e-05
53 *263:22 *188:2 6.31e-05
54 *263:21 *188:3 6.30999786e-05

*RES
1 *263:2 *766:Y 8.76136
2 *263:3 *263:2 265.293
3 *263:3 *263:27 1.06967
4 *263:26 *263:27 4.69569
5 *263:14 *263:26 1.07421
6 *263:15 *263:14 2.87362
7 *263:8 *263:15 1.07421
8 *263:9 *263:8 0.670813
9 *263:9 *263:6 1.07421
10 *263:7 *263:6 28.9764
11 *263:7 *263:4 1.07421
12 *263:5 *263:4 33.0149
13 *263:22 *263:5 1.07421
14 *263:21 *263:22 297.043121
15 *263:21 *263:25 1.06967
16 *263:24 *263:25 90.9359
17 *263:12 *263:24 1.07421
18 *263:13 *263:12 50.8956
19 *263:13 *263:10 1.07421
20 *263:11 *263:10 4.04754
21 *263:23 *263:11 8.76136
22 *263:20 *263:23 4.22431
23 *263:16 *263:20 8.76136
24 *263:17 *263:16 2.19827
25 *263:19 *263:17 8.76136
26 *263:18 *765:A 0.616422
27 *263:18 *263:19 2.88721
*END

*D_NET *264 0.0202634

*CONN
*I *767:Y O *C 1779.55 1265.575 *L 0 *D INVX4
*I *766:A I *C 1779.385 1049.995 *L 0.00161 *D INVX4

*CAP
1 *767:Y 2.27301e-05
2 *766:A 2.27301e-05
3 *264:2 0.00923873
4 *264:3 0.00925228
5 *264:4 2.58361e-05
6 *264:5 3.06362e-05
7 *264:6 0.000406177
8 *264:7 0.000387965
9 *264:5 *208:2 3.25e-06
10 *264:4 *208:3 3.25e-06
11 *264:3 *208:4 2.173e-05
12 *264:2 *208:5 2.173e-05
13 *264:3 *208:2 0.00041326
14 *264:2 *208:3 0.000413260013

*RES
1 *264:7 *767:Y 8.75882
2 *264:4 *766:A 8.75882
3 *264:6 *264:7 27.4562
4 *264:4 *264:5 1.51359
5 *264:3 *264:6 2.13684
6 *264:2 *264:5 1.06842
7 *264:2 *264:3 729.374695
*END

*D_NET *265 0.0227987

*CONN
*I *768:Y O *C 1546.55 1265.575 *L 0 *D INVX4
*I *767:A I *C 1779.385 1265.455 *L 0.00161 *D INVX4

*CAP
1 *768:Y 0.000287226
2 *767:A 2.26268e-05
3 *265:2 0.01106604
4 *265:5 0.000300059
5 *265:6 1.78988e-05
6 *265:7 0.010871
7 *265:8 1.04691e-05
8 *265:9 1.04691e-05
9 *265:10 0.000212929

*RES
1 *265:8 *767:A 8.7616
2 *265:8 *265:9 0.119368
3 *265:4 *265:9 0.214862
4 *265:10 *265:9 8.7616
5 *265:2 *265:10 14.7061
6 *265:7 *265:2 782.289368
7 *768:Y *265:5 17.38
8 *265:6 *265:7 8.7616
9 *265:6 *265:5 8.7616
10 *265:3 *265:6 0.214862
*END

*D_NET *266 0.00914398

*CONN
*I *769:Y O *C 1453.33 1265.4399 *L 0 *D INVX2
*I *768:A I *C 1546.385 1265.455 *L 0.00161 *D INVX4

*CAP
1 *769:Y 2.2679e-05
2 *768:A 9.94333e-06
3 *266:4 1.79116e-05
4 *266:5 0.00446326
5 *266:6 7.22594e-05
6 *266:7 1.79116e-05
7 *266:8 0.00446326
8 *266:9 1.3621e-05
9 *266:10 6.31333e-05

*RES
1 *266:9 *768:A 0.600993
2 *266:9 *266:10 0.339906
3 *266:6 *266:10 3.59611
4 *266:7 *266:6 8.75874
5 *266:3 *266:7 0.216752
6 *266:8 *266:7 8.75874
7 *266:5 *266:8 322.841736
8 *266:4 *266:5 8.75874
9 *266:4 *769:Y 8.75874
10 *266:2 *266:4 0.216752
*END

*D_NET *267 0.0234613

*CONN
*I *978:A1 I *C 949.8 248.36 *L 0.000212 *D AOI22XL
*I *970:A1 I *C 1012.4 334.94 *L 0.000212 *D AOI22XL
*I *968:A1 I *C 893.2 248.36 *L 0.000212 *D AOI22XL
*I *770:Y O *C 860.16 247.53 *L 0 *D BUFX4

*CAP
1 *978:A1 2.26681e-05
2 *970:A1 2.26681e-05
3 *968:A1 4.02388e-05
4 *770:Y 2.26681e-05
5 *267:4 8.17369e-05
6 *267:5 8.17369e-05
7 *267:6 0.00156488
8 *267:7 0.00156889
9 *267:8 4.52762e-05
10 *267:9 4.12583e-05
11 *267:10 2.68059e-05
12 *267:11 3.14834e-05
13 *267:12 2.68059e-05
14 *267:13 2.21283e-05
15 *267:14 5.20526e-05
16 *267:15 5.20526e-05
17 *267:16 0.00215796
18 *267:17 0.00307062
19 *267:18 0.00376104
20 *267:19 0.00283741
21 *267:22 1.78706e-05
22 *267:23 5.3072e-05
23 *267:24 0.00393003
24 *267:25 0.00393003

*RES
1 *267:13 *978:A1 8.75859
2 *267:13 *267:12 1.55285
3 *267:15 *267:12 1.11242
4 *267:15 *267:14 5.53485
5 *267:25 *970:A1 8.75859
6 *267:14 *267:11 1.07609
7 *267:24 *267:25 297.565125
8 *267:11 *267:10 1.34398
9 *267:16 *267:24 8.75859
10 *267:18 *267:10 8.75859
11 *267:17 *267:16 155.162
12 *267:18 *267:17 66.5362
13 *267:19 *267:18 203.287
14 *267:23 *968:A1 2.51089
15 *267:4 *267:19 8.75859
16 *267:5 *267:23 8.75859
17 *267:21 *267:5 1.04885
18 *267:5 *267:4 8.53611
19 *267:6 *267:5 8.75859
20 *267:7 *267:6 115.696
21 *267:8 *267:7 1.05793
22 *267:9 *267:8 3.28277
23 *267:22 *267:9 8.75859
24 *267:22 *770:Y 8.75859
25 *267:20 *267:22 1.04885
*END

*D_NET *268 0.0916262

*CONN
*I *972:B1 I *C 768.98 583.33 *L 0.000212 *D AOI22XL
*I *971:A1 I *C 825.8 248.36 *L 0.000212 *D AOI22XL
*I *969:B1 I *C 892.58 707.91 *L 0.000212 *D AOI22XL
*I *965:B1 I *C 1074.1801 766.05 *L 0.000212 *D AOI22XL
*I *771:Y O *C 772.5 640.84 *L 0 *D CLKINVX20
*I *770:A I *C 860.57 248.04 *L 0.000389 *D BUFX4

*CAP
1 *972:B1 2.27128e-05
2 *971:A1 2.27128e-05
3 *969:B1 2.27128e-05
4 *965:B1 2.27128e-05
5 *771:Y 4.52895e-05
6 *770:A 2.27128e-05
7 *268:6 0.00248589
8 *268:7 0.00249052
9 *268:8 0.00166497
10 *268:9 0.00166089
11 *268:10 0.00567275
12 *268:11 0.00381425
13 *268:12 7.83386e-05
14 *268:13 8.24188e-05
15 *268:14 0.00378786
16 *268:15 0.00277449
17 *268:16 0.00012662
18 *268:17 0.00664396
19 *268:18 0.00659677
20 *268:19 0.000575027
21 *268:20 0.000529602
22 *268:21 9.54752e-05
23 *268:22 6.81383e-05
24 *268:23 1.97207e-05
25 *268:24 5.16817e-05
26 *268:25 0.000108668
27 *268:26 0.000108668
28 *268:27 8.33708e-05
29 *268:28 7.87467e-05
30 *268:29 0.00891306
31 *268:30 4.97777e-05
32 *268:31 0.00279598
33 *268:32 0.00267208
34 *268:33 0.00206686
35 *268:34 0.00682335
36 *268:35 0.00202144
37 *268:36 0.00279598
38 *268:37 0.00564637
39 *268:38 3.68572e-05
40 *268:39 3.68572e-05
41 *268:40 0.00682335
42 *268:41 0.00054633
43 *268:42 0.000564555
44 *268:43 7.19464e-05
45 *268:44 5.37218e-05
46 *268:45 9.61552e-05
47 *268:46 0.000100235
48 *268:47 3.25051e-05
49 *268:48 2.25768e-05
50 *268:49 2.8425e-05
51 *268:50 0.003666
52 *268:51 0.00527276
53 *268:15 *299:11 1.21e-06
54 *268:16 *299:5 1.21e-06
55 *268:17 *299:5 0.00036449
56 *268:18 *299:6 0.000364490001

*RES
1 *268:23 *965:B1 8.75908
2 *268:24 *268:23 0.736184
3 *268:24 *268:21 3.23771
4 *268:22 *268:21 4.0415
5 *268:22 *268:25 1.08174
6 *268:26 *268:25 6.74585
7 *268:27 *268:26 1.08174
8 *268:28 *268:27 4.7251
9 *268:51 *268:28 8.75908
10 *268:29 *268:51 318.227
11 *268:50 *268:29 221.08
12 *268:6 *268:50 8.75908
13 *268:7 *268:6 189.004
14 *268:48 *268:7 1.08174
15 *268:49 *268:48 8.75908
16 *268:47 *268:49 1.41227
17 *268:38 *770:A 8.75908
18 *268:46 *268:47 1.02915
19 *268:38 *268:39 2.07333
20 *268:45 *268:46 5.66411
21 *268:12 *268:39 8.75908
22 *268:44 *969:B1 8.75908
23 *268:44 *268:45 8.75908
24 *268:13 *268:12 5.14577
25 *268:43 *268:44 3.36541
26 *268:8 *268:13 1.0592
27 *268:42 *268:43 2.15597
28 *268:9 *268:8 123.243
29 *268:41 *268:42 37.6656
30 *268:14 *971:A1 8.75908
31 *268:14 *268:9 8.75908
32 *268:40 *268:41 8.75908
33 *268:14 *268:11 286.796
34 *268:34 *268:40 363.727
35 *268:11 *268:10 3.69594
36 *268:35 *268:34 8.75908
37 *268:10 *268:37 396.826
38 *268:33 *268:35 153.352
39 *268:36 *268:37 8.75908
40 *268:19 *268:33 4.31945
41 *268:31 *268:36 168.376
42 *268:20 *268:19 38.3567
43 *268:18 *268:31 8.75908
44 *771:Y *268:20 8.75908
45 *268:18 *268:17 492.311584
46 *268:17 *268:16 4.04901
47 *268:32 *771:Y 8.75908
48 *268:16 *268:15 4.77768
49 *268:15 *268:32 203.119
50 *268:30 *268:15 3.23771
51 *972:B1 *268:30 8.75908
*END

*D_NET *269 0.00945615

*CONN
*I *772:Y O *C 677.33 640.91 *L 0 *D INVX3
*I *771:A I *C 771.905 641.38 *L 0.00804 *D CLKINVX20

*CAP
1 *772:Y 2.26864e-05
2 *771:A 2.26864e-05
3 *269:2 0.00454664
4 *269:3 0.00454664
5 *269:4 7.30543e-05
6 *269:5 7.30543e-05
7 *269:6 8.57503e-05
8 *269:7 8.57503e-05

*RES
1 *269:6 *771:A 8.76215
2 *269:6 *269:7 6.4319
3 *269:2 *269:7 8.76215
4 *269:3 *269:2 327.013916
5 *269:4 *269:3 8.76215
6 *269:5 *269:4 4.72538
7 *772:Y *269:5 8.76215
*END

*D_NET *270 0.0328803

*CONN
*I *977:B1 I *C 584.58 641.47 *L 0.000212 *D AOI22XL
*I *773:Y O *C 346.565 641.675 *L 0 *D CLKINVX6
*I *772:A I *C 676.7 641.535 *L 0.0012 *D INVX3

*CAP
1 *977:B1 2.26376e-05
2 *773:Y 2.26376e-05
3 *772:A 2.26376e-05
4 *270:3 0.00300349
5 *270:4 0.01168154
6 *270:5 0.0087178
7 *270:6 8.449e-05
8 *270:7 0.0045113
9 *270:8 0.00456709
10 *270:9 2.58461e-05
11 *270:10 2.58461e-05
12 *270:11 1.76466e-05
13 *270:12 1.76466e-05
14 *270:13 8.00337e-05
15 *270:14 8.00337e-05

*RES
1 *270:13 *772:A 8.76286
2 *270:13 *270:14 5.56586
3 *270:7 *270:14 8.76286
4 *270:11 *977:B1 8.76286
5 *270:8 *270:7 326.277
6 *270:11 *270:12 0.674066
7 *270:6 *270:8 5.13253
8 *270:3 *270:12 8.76286
9 *270:3 *270:6 1.42517
10 *270:4 *270:3 214.892
11 *270:5 *270:4 631.079956
12 *270:10 *270:5 8.76286
13 *270:9 *270:10 1.34813
14 *773:Y *270:9 8.76286
*END

*D_NET *271 0.0095837

*CONN
*I *774:Y O *C 250.53 641.4 *L 0 *D INVX2
*I *773:A I *C 345.7 641.535 *L 0.00241 *D CLKINVX6

*CAP
1 *774:Y 2.26989e-05
2 *773:A 0.000177089
3 *271:2 2.00993e-05
4 *271:3 2.00993e-05
5 *271:4 0.000191609
6 *271:5 0.000195604
7 *271:6 0.00415523
8 *271:7 0.000189897
9 *271:8 3.55701e-05
10 *271:9 3.55701e-05
11 *271:10 0.00415124
12 *271:10 *276:2 0.00018554
13 *271:6 *276:3 0.00018554
14 *271:5 *276:2 8.99e-06
15 *271:4 *276:3 8.98999124e-06

*RES
1 *271:7 *773:A 10.7836
2 *271:8 *271:7 8.75843
3 *271:8 *271:9 2.01568
4 *271:10 *271:9 8.75843
5 *271:6 *271:10 312.292023
6 *271:5 *271:6 1.01975
7 *271:4 *271:5 12.7469
8 *271:2 *271:4 8.75843
9 *271:3 *271:2 0.733841
10 *774:Y *271:3 8.75843
*END

*D_NET *272 0.0242908

*CONN
*I *958:A I *C 1779.5 646.095 *L 0.000212 *D NAND4XL
*I *775:Y O *C 1553.55 646.555 *L 0 *D INVX4

*CAP
1 *958:A 4.90575e-05
2 *775:Y 2.25995e-05
3 *272:2 1.9476e-05
4 *272:3 1.9476e-05
5 *272:4 0.01204114
6 *272:6 1.78224e-05
7 *272:7 0.0118967
8 *272:8 6.1919e-05
9 *272:9 0.000162423

*RES
1 *272:8 *958:A 2.44666
2 *272:3 *272:8 8.76023
3 *272:3 *272:2 0.72803
4 *272:9 *272:2 8.76023
5 *272:4 *272:9 10.4789
6 *272:7 *272:4 782.166504
7 *272:6 *272:7 8.76023
8 *272:6 *775:Y 8.76023
9 *272:5 *272:6 1.0264
*END

*D_NET *273 0.0219747

*CONN
*I *776:Y O *C 1328.75 646.555 *L 0 *D INVX4
*I *775:A I *C 1553.385 646.435 *L 0.00161 *D INVX4

*CAP
1 *776:Y 0.0001584
2 *775:A 9.96023e-06
3 *273:2 0.01052812
4 *273:5 0.000171252
5 *273:6 1.7832e-05
6 *273:7 0.0039653
7 *273:8 0.000260412
8 *273:9 1.7832e-05
9 *273:10 0.00658066
10 *273:11 1.36552e-05
11 *273:12 0.000251255

*RES
1 *273:11 *775:A 0.596033
2 *273:11 *273:12 0.341629
3 *273:8 *273:12 14.9808
4 *273:9 *273:8 8.75878
5 *273:4 *273:9 1.02489
6 *273:10 *273:9 8.75878
7 *273:2 *273:10 476.361481
8 *273:7 *273:2 286.845
9 *776:Y *273:5 9.58741
10 *273:6 *273:7 8.75878
11 *273:6 *273:5 8.75878
12 *273:3 *273:6 1.02489
*END

*D_NET *274 0.02326

*CONN
*I *957:A I *C 1775.7 580.165 *L 0.000212 *D NAND4XL
*I *777:Y O *C 1553.73 582.77 *L 0 *D INVX3

*CAP
1 *957:A 2.30822e-05
2 *777:Y 2.25945e-05
3 *274:2 0.01065276
4 *274:3 0.01065276
5 *274:4 0.000131016
6 *274:5 0.000131016
7 *274:6 3.29978e-05
8 *274:7 2.69834e-05
9 *274:8 2.69834e-05
10 *274:9 0.000338593
11 *274:10 3.41356e-05
12 *274:11 0.000338593
13 *274:12 3.70616e-05
14 *274:2 *155:4 0.00015363
15 *274:3 *155:2 0.00015363
16 *274:2 *155:2 0.00025211
17 *274:3 *155:3 0.000252109996

*RES
1 *274:12 *957:A 1.22213
2 *274:11 *274:12 1.31524
3 *274:9 *274:11 19.752
4 *274:9 *274:10 1.29197
5 *274:6 *274:10 1.21049
6 *274:7 *274:6 8.76442
7 *274:7 *274:8 1.33852
8 *274:2 *274:8 8.76442
9 *274:3 *274:2 762.795471
10 *274:5 *777:Y 8.76442
11 *274:4 *274:3 8.76442
12 *274:4 *274:5 8.06606
*END

*D_NET *275 0.0221226

*CONN
*I *778:Y O *C 1329.35 583.125 *L 0 *D INVX4
*I *777:A I *C 1553.1 583.395 *L 0.0012 *D INVX3

*CAP
1 *778:Y 2.25788e-05
2 *777:A 2.25788e-05
3 *275:2 0.00686748
4 *275:3 0.01096077
5 *275:4 0.00411119
6 *275:5 3.44536e-05
7 *275:6 3.44536e-05
8 *275:7 3.44536e-05
9 *275:8 3.44536e-05

*RES
1 *275:7 *777:A 8.75989
2 *275:7 *275:8 2.01743
3 *275:2 *275:8 8.75989
4 *275:3 *275:2 497.046173
5 *275:4 *275:3 297.268
6 *275:6 *275:4 8.75989
7 *275:5 *275:6 2.01743
8 *778:Y *275:5 8.75989
*END

*D_NET *276 0.0304396

*CONN
*I *995:B I *C 249.3 641.345 *L 0.000211 *D AND2X1
*I *779:Y O *C 558.565 641.675 *L 0 *D CLKINVX6

*CAP
1 *995:B 2.27531e-05
2 *779:Y 2.27531e-05
3 *276:2 0.01331362
4 *276:3 0.0107494
5 *276:6 1.78774e-05
6 *276:7 0.00404579
7 *276:8 0.000189338
8 *276:9 0.00148545
9 *276:10 1.78774e-05
10 *276:11 0.000185479
11 *276:2 *271:10 0.00018554
12 *276:3 *271:6 0.00018554
13 *276:2 *271:5 8.99e-06
14 *276:3 *271:4 8.98999124e-06

*RES
1 *276:5 *276:10 1.02014
2 *276:10 *779:Y 8.76119
3 *276:11 *276:10 8.76119
4 *276:8 *276:11 12.7937
5 *276:8 *276:9 1.02014
6 *276:7 *276:9 106.262
7 *276:2 *276:7 185.701
8 *276:3 *276:2 786.538879
9 *276:6 *995:B 8.76119
10 *276:6 *276:3 8.76119
11 *276:4 *276:6 1.05614
*END

*D_NET *277 0.0216362

*CONN
*I *780:Y O *C 778.55 641.265 *L 0 *D INVX4
*I *779:A I *C 557.7 641.535 *L 0.00241 *D CLKINVX6

*CAP
1 *780:Y 2.26263e-05
2 *779:A 2.26263e-05
3 *277:2 0.0102263
4 *277:3 0.0102222
5 *277:6 1.7945e-05
6 *277:7 0.000151986
7 *277:8 1.7945e-05
8 *277:9 0.000147929
9 *277:9 *186:4 8.58e-06
10 *277:7 *186:5 8.58e-06
11 *277:2 *186:4 0.00039469
12 *277:3 *186:5 0.000394690004

*RES
1 *277:5 *277:8 1.02637
2 *277:8 *780:Y 8.76546
3 *277:9 *277:8 8.76546
4 *277:7 *277:9 10.6648
5 *277:2 *277:7 1.02637
6 *277:3 *277:2 773.153931
7 *277:6 *779:A 8.76546
8 *277:6 *277:3 8.76546
9 *277:4 *277:6 1.02637
*END

*D_NET *278 0.0217078

*CONN
*I *781:Y O *C 998.75 641.265 *L 0 *D INVX4
*I *780:A I *C 778.385 641.385 *L 0.00161 *D INVX4

*CAP
1 *781:Y 2.26542e-05
2 *780:A 2.26542e-05
3 *278:2 0.01038211
4 *278:3 0.00900274
5 *278:5 1.10895e-05
6 *278:6 1.10895e-05
7 *278:7 2.5981e-05
8 *278:8 2.5981e-05
9 *278:9 0.00139711
10 *278:9 *185:4 6.149e-05
11 *278:2 *185:5 6.149e-05
12 *278:9 *185:6 1.14e-06
13 *278:2 *185:7 1.14e-06
14 *278:2 *185:5 0.00034058
15 *278:3 *185:8 0.000340579995

*RES
1 *278:7 *781:Y 8.76129
2 *278:7 *278:8 1.3463
3 *278:9 *278:8 8.76129
4 *278:6 *780:A 8.76129
5 *278:2 *278:9 105.26
6 *278:3 *278:2 678.699524
7 *278:5 *278:6 0.155342
8 *278:5 *278:3 8.76129
9 *278:4 *278:5 0.787066
*END

*D_NET *279 0.0229605

*CONN
*I *782:Y O *C 1218.95 641.265 *L 0 *D INVX4
*I *781:A I *C 998.585 641.385 *L 0.00161 *D INVX4

*CAP
1 *782:Y 2.27137e-05
2 *781:A 2.27137e-05
3 *279:2 0.0111044
4 *279:3 0.01110851
5 *279:4 0.00023968
6 *279:5 0.000235612
7 *279:6 5.96658e-05
8 *279:7 5.96658e-05
9 *279:8 5.37331e-05
10 *279:9 5.37331e-05

*RES
1 *279:8 *782:Y 8.75815
2 *279:8 *279:9 3.35865
3 *279:2 *279:9 8.75815
4 *279:3 *279:2 764.279785
5 *279:4 *279:3 1.02625
6 *279:5 *279:4 16.3501
7 *279:7 *279:5 8.75815
8 *279:6 *279:7 3.69685
9 *781:A *279:6 8.75815
*END

*D_NET *280 0.0206794

*CONN
*I *783:Y O *C 1262.15 473.685 *L 0 *D INVX4
*I *782:A I *C 1218.785 641.385 *L 0.00161 *D INVX4

*CAP
1 *783:Y 2.26944e-05
2 *782:A 2.26944e-05
3 *280:2 0.000150494
4 *280:3 0.000150494
5 *280:4 0.00018763
6 *280:5 0.000169406
7 *280:6 0.00246968
8 *280:7 0.00749317
9 *280:8 0.00751151
10 *280:9 3.07177e-05
11 *280:10 0.00247083

*RES
1 *280:3 *783:Y 8.75674
2 *280:3 *280:2 9.45379
3 *280:9 *280:2 8.75674
4 *280:9 *280:10 1.28955
5 *280:6 *280:10 128.833
6 *280:7 *280:6 8.75674
7 *280:5 *782:A 8.75674
8 *280:7 *280:8 571.026306
9 *280:4 *280:5 10.9176
10 *280:4 *280:8 2.16087
*END

*D_NET *281 0.0232103

*CONN
*I *784:Y O *C 1262.53 250.19 *L 0 *D INVX3
*I *783:A I *C 1261.985 473.805 *L 0.00161 *D INVX4

*CAP
1 *784:Y 2.01721e-05
2 *783:A 2.26548e-05
3 *281:2 0.01016906
4 *281:3 0.0101642
5 *281:4 7.99125e-05
6 *281:5 7.99125e-05
7 *281:6 0.000251375
8 *281:7 0.000269685
9 *281:8 3.30512e-05
10 *281:9 7.64988e-05
11 *281:10 9.01537e-05
12 *281:2 *343:3 0.00053921
13 *281:3 *343:4 0.00053921
14 *281:4 *343:5 4.66e-06
15 *281:5 *343:6 4.66003075e-06
16 *281:2 *429:12 2.87e-06
17 *281:3 *429:11 2.87e-06
18 *281:2 *429:2 1.721e-05
19 *281:3 *429:3 1.721e-05
20 *281:2 *429:4 0.00039089
21 *281:3 *429:5 0.00039089
22 *281:4 *429:4 6.56e-06
23 *281:5 *429:5 6.56e-06
24 *281:6 *429:7 1.546e-05
25 *281:7 *429:6 1.54600056e-05

*RES
1 *281:8 *784:Y 1.2073
2 *281:3 *281:8 8.75582
3 *281:3 *281:2 768.168152
4 *281:5 *281:2 1.07836
5 *281:5 *281:4 7.23205
6 *281:4 *281:9 1.07836
7 *281:6 *783:A 8.75582
8 *281:9 *281:10 4.89951
9 *281:7 *281:6 18.3907
10 *281:7 *281:10 2.15672
*END

*D_NET *282 0.0241003

*CONN
*I *964:A I *C 1776.7 272.365 *L 0.000212 *D NAND4XL
*I *785:Y O *C 1605.15 333.465 *L 0 *D INVX4

*CAP
1 *964:A 5.02899e-05
2 *785:Y 2.26304e-05
3 *282:2 0.00915485
4 *282:3 0.00238178
5 *282:4 0.00238178
6 *282:5 6.31417e-05
7 *282:6 0.000445484
8 *282:7 0.00915485
9 *282:8 0.000445484

*RES
1 *282:5 *964:A 3.13357
2 *282:6 *282:5 8.75833
3 *282:6 *282:8 36.6941
4 *282:4 *785:Y 8.75833
5 *282:7 *282:8 8.75833
6 *282:3 *282:4 180.251
7 *282:2 *282:7 513.404175
8 *282:2 *282:3 8.75833
*END

*D_NET *283 0.0212672

*CONN
*I *786:Y O *C 1387.55 333.465 *L 0 *D INVX4
*I *785:A I *C 1604.985 333.585 *L 0.00161 *D INVX4

*CAP
1 *786:Y 1.98287e-05
2 *785:A 9.91435e-06
3 *283:2 0.01031328
4 *283:5 3.25757e-05
5 *283:6 1.79402e-05
6 *283:7 0.00123111
7 *283:8 0.000260448
8 *283:9 1.79402e-05
9 *283:10 0.00910011
10 *283:11 0.000250849
11 *283:12 1.32191e-05

*RES
1 *283:12 *785:A 0.603353
2 *283:11 *283:12 0.301676
3 *283:8 *283:11 14.9833
4 *283:9 *283:8 8.75867
5 *283:4 *283:9 1.0257
6 *283:10 *283:9 8.75867
7 *283:2 *283:10 659.021912
8 *283:7 *283:2 88.6124
9 *786:Y *283:5 1.19665
10 *283:6 *283:7 8.75867
11 *283:6 *283:5 8.75867
12 *283:3 *283:6 1.0257
*END

*D_NET *284 0.021296

*CONN
*I *787:Y O *C 1169.95 333.465 *L 0 *D INVX4
*I *786:A I *C 1387.385 333.585 *L 0.00161 *D INVX4

*CAP
1 *787:Y 0.000278848
2 *786:A 9.87746e-06
3 *284:4 0.000291613
4 *284:5 1.79314e-05
5 *284:6 0.00995876
6 *284:7 0.000379294
7 *284:8 1.79314e-05
8 *284:9 0.00995876
9 *284:10 0.000369721
10 *284:11 1.32206e-05

*RES
1 *284:11 *786:A 0.593863
2 *284:10 *284:11 0.307929
3 *284:7 *284:10 22.1709
4 *284:8 *284:7 8.76498
5 *284:3 *284:8 1.02276
6 *284:9 *284:8 8.76498
7 *284:6 *284:9 720.72998
8 *787:Y *284:4 16.7821
9 *284:5 *284:6 8.76498
10 *284:5 *284:4 8.76498
11 *284:2 *284:5 1.02276
*END

*D_NET *285 0.021684

*CONN
*I *788:Y O *C 953.75 333.465 *L 0 *D INVX4
*I *787:A I *C 1169.785 333.585 *L 0.00161 *D INVX4

*CAP
1 *788:Y 0.000128761
2 *787:A 9.86733e-06
3 *285:2 0.01060091
4 *285:5 0.000141701
5 *285:6 1.79553e-05
6 *285:7 0.000605951
7 *285:8 7.23065e-05
8 *285:9 1.79553e-05
9 *285:10 0.0100128
10 *285:11 6.27627e-05
11 *285:12 1.31025e-05

*RES
1 *285:12 *787:A 0.604581
2 *285:11 *285:12 0.302291
3 *285:8 *285:11 3.5951
4 *285:9 *285:8 8.75563
5 *285:4 *285:9 1.02563
6 *285:10 *285:9 8.75563
7 *285:2 *285:10 707.532593
8 *285:7 *285:2 43.3247
9 *788:Y *285:5 7.79478
10 *285:6 *285:7 8.75563
11 *285:6 *285:5 8.75563
12 *285:3 *285:6 1.02563
*END

*D_NET *286 0.0216373

*CONN
*I *959:A I *C 1778.3 707.655 *L 0.000212 *D NAND4XL
*I *789:Y O *C 1564.53 708.47 *L 0 *D INVX3

*CAP
1 *959:A 0.000318302
2 *789:Y 2.26158e-05
3 *286:2 2.59776e-05
4 *286:3 0.01001435
5 *286:4 2.59776e-05
6 *286:5 2.59776e-05
7 *286:6 0.01001435
8 *286:7 0.000331138
9 *286:8 2.59776e-05
10 *286:6 *151:2 0.00041622
11 *286:3 *151:3 0.000416220009

*RES
1 *286:7 *959:A 18.6189
2 *286:8 *286:7 8.75719
3 *286:5 *286:8 1.34119
4 *286:6 *286:5 8.75719
5 *286:3 *286:6 738.624878
6 *286:4 *789:Y 8.75719
7 *286:2 *286:3 8.75719
8 *286:2 *286:4 1.34119
*END

*D_NET *287 0.0211766

*CONN
*I *790:Y O *C 1393.35 752.575 *L 0 *D INVX4
*I *789:A I *C 1563.9 707.845 *L 0.0012 *D INVX3

*CAP
1 *790:Y 2.27135e-05
2 *789:A 2.27135e-05
3 *287:2 0.00845757
4 *287:3 0.000994621
5 *287:4 0.00119182
6 *287:5 0.00119182
7 *287:6 0.00090338
8 *287:7 0.00748863
9 *287:8 0.00090338

*RES
1 *287:6 *789:A 8.75808
2 *287:6 *287:8 67.2557
3 *287:5 *790:Y 8.75808
4 *287:7 *287:8 8.75808
5 *287:4 *287:5 89.4512
6 *287:2 *287:7 452.300842
7 *287:3 *287:2 59.4156
8 *287:3 *287:4 8.75808
*END

*D_NET *288 0.0217004

*CONN
*I *791:Y O *C 1393.35 974.875 *L 0 *D INVX4
*I *790:A I *C 1393.1851 752.455 *L 0.00161 *D INVX4

*CAP
1 *791:Y 2.26545e-05
2 *790:A 2.26545e-05
3 *288:2 0.000413292
4 *288:3 0.00043166
5 *288:4 0.000382678
6 *288:5 0.000378085
7 *288:6 0.01003151
8 *288:7 0.0100179

*RES
1 *288:5 *791:Y 8.75533
2 *288:4 *288:5 26.9001
3 *288:4 *288:7 1.07912
4 *288:6 *288:7 729.084229
5 *288:3 *288:6 2.15824
6 *288:2 *288:3 29.7703
7 *790:A *288:2 8.75533
*END

*D_NET *289 0.0216695

*CONN
*I *792:Y O *C 1393.35 1197.175 *L 0 *D INVX4
*I *791:A I *C 1393.1851 974.755 *L 0.00161 *D INVX4

*CAP
1 *792:Y 2.26979e-05
2 *791:A 2.26979e-05
3 *289:2 1.96821e-05
4 *289:3 3.79357e-05
5 *289:4 0.000390309
6 *289:5 0.000385547
7 *289:6 0.01040215
8 *289:7 0.0103885

*RES
1 *289:5 *792:Y 8.75943
2 *289:4 *289:5 27.5726
3 *289:4 *289:7 1.07471
4 *289:6 *289:7 757.332886
5 *289:3 *289:6 2.16097
6 *289:2 *289:3 0.855143
7 *791:A *289:2 8.75943
*END

*D_NET *290 0.020708

*CONN
*I *793:Y O *C 1393.35 1419.475 *L 0 *D INVX4
*I *792:A I *C 1393.1851 1197.0551 *L 0.00161 *D INVX4

*CAP
1 *793:Y 2.26976e-05
2 *792:A 2.26976e-05
3 *290:2 0.000413359
4 *290:3 0.000431692
5 *290:4 0.000382804
6 *290:5 0.000378003
7 *290:6 0.00953519
8 *290:7 0.00952151

*RES
1 *290:5 *793:Y 8.75533
2 *290:4 *290:5 26.9001
3 *290:4 *290:7 1.07912
4 *290:6 *290:7 729.084229
5 *290:3 *290:6 2.15824
6 *290:2 *290:3 29.7703
7 *792:A *290:2 8.75533
*END

*D_NET *291 0.00838554

*CONN
*I *794:Y O *C 1393.33 1508.26 *L 0 *D INVX2
*I *793:A I *C 1393.1851 1419.355 *L 0.00161 *D INVX4

*CAP
1 *794:Y 2.26833e-05
2 *793:A 2.26833e-05
3 *291:2 0.00398582
4 *291:3 0.0040177
5 *291:4 0.000152407
6 *291:5 0.000184286

*RES
1 *291:2 *794:Y 8.76016
2 *291:3 *291:2 304.081543
3 *291:5 *291:3 3.23866
4 *291:4 *291:5 9.59535
5 *793:A *291:4 8.76016
*END

*D_NET *292 0.0394817

*CONN
*I *994:A1 I *C 1781.4 1326.74 *L 0.000212 *D AOI22XL
*I *992:A1 I *C 1781.8 1138.64 *L 0.000212 *D AOI22XL
*I *991:A1 I *C 1781.2 1080.5 *L 0.000212 *D AOI22XL
*I *990:A1 I *C 1781.8 1200.2 *L 0.000212 *D AOI22XL
*I *989:A1 I *C 1781.8 1267.52 *L 0.000212 *D AOI22XL
*I *988:A1 I *C 1781.2 1446.4399 *L 0.000212 *D AOI22XL
*I *795:Y O *C 1738.115 1080.665 *L 0 *D CLKBUFX8

*CAP
1 *994:A1 2.26929e-05
2 *992:A1 2.26929e-05
3 *991:A1 7.89901e-05
4 *990:A1 2.26929e-05
5 *989:A1 2.26929e-05
6 *988:A1 2.26929e-05
7 *795:Y 2.26929e-05
8 *292:7 0.00220927
9 *292:8 0.00220927
10 *292:9 0.00256587
11 *292:10 0.00256587
12 *292:11 0.00232092
13 *292:12 0.00232092
14 *292:13 0.000346956
15 *292:14 0.000365774
16 *292:15 3.49486e-05
17 *292:16 0.000158455
18 *292:17 0.00030663
19 *292:18 0.000164385
20 *292:19 0.00241596
21 *292:20 0.00236156
22 *292:21 4.14323e-05
23 *292:22 7.32971e-05
24 *292:23 0.000444132
25 *292:24 4.1116e-05
26 *292:25 4.64136e-05
27 *292:26 4.16695e-05
28 *292:29 1.78696e-05
29 *292:30 0.00202591
30 *292:31 9.17993e-05
31 *292:32 1.78696e-05
32 *292:33 0.00210688
33 *292:34 0.000458127
34 *292:35 0.000458127
35 *292:36 3.14695e-05
36 *292:37 3.14695e-05
37 *292:38 3.14695e-05
38 *292:39 2.68045e-05
39 *292:40 6.46786e-05
40 *292:41 2.25347e-05
41 *292:42 0.000419225
42 *292:43 8.77668e-05
43 *292:44 0.0051818
44 *292:45 6.46786e-05
45 *292:46 0.00516346
46 *292:25 *221:2 2.43e-06
47 *292:26 *221:3 2.43e-06
48 *292:9 *221:4 8.427e-05
49 *292:10 *221:5 8.427e-05
50 *292:11 *221:4 0.00016084
51 *292:12 *221:5 0.00016084
52 *292:7 *221:2 0.00015642
53 *292:8 *221:3 0.00015642
54 *292:16 *221:10 5.03e-06
55 *292:17 *221:9 5.02997071e-06
56 *292:7 *206:8 0.00017557
57 *292:8 *206:9 0.00017557
58 *292:9 *206:12 0.00014486
59 *292:10 *206:13 0.00014486
60 *292:11 *206:12 0.00016779
61 *292:12 *206:13 0.00016779
62 *292:13 *206:12 2.255e-05
63 *292:14 *206:13 2.255e-05
64 *292:14 *206:12 2.3e-06
65 *292:15 *206:13 2.3e-06
66 *292:16 *206:12 1.286e-05
67 *292:17 *206:13 1.286e-05
68 *292:17 *206:12 1.042e-05
69 *292:18 *206:13 1.042e-05
70 *292:9 *206:23 1.96e-05
71 *292:10 *206:22 1.95999959e-05

*RES
1 *292:39 *988:A1 8.76258
2 *292:38 *292:39 1.3417
3 *292:35 *292:38 1.06861
4 *292:34 *292:35 32.1591
5 *292:34 *292:37 1.06861
6 *292:36 *292:37 1.3417
7 *292:36 *292:41 1.06861
8 *292:40 *292:41 8.76258
9 *292:40 *292:45 3.06334
10 *292:21 *994:A1 8.76258
11 *292:46 *292:45 8.76258
12 *292:22 *292:21 2.19658
13 *292:44 *292:46 389.067902
14 *292:22 *292:19 3.21176
15 *292:19 *292:44 2.14315
16 *292:20 *292:19 177.27
17 *292:42 *292:20 1.06861
18 *292:23 *989:A1 8.76258
19 *292:23 *292:42 30.4672
20 *292:24 *292:23 2.98023
21 *292:24 *292:9 1.06861
22 *292:10 *292:9 209.815
23 *292:13 *292:10 1.07454
24 *292:14 *990:A1 8.76258
25 *292:14 *292:13 25.4922
26 *292:15 *292:14 3.12864
27 *292:15 *292:11 1.07454
28 *292:12 *292:11 201.504
29 *292:16 *292:12 1.06861
30 *292:17 *992:A1 8.76258
31 *292:17 *292:16 17.2996
32 *292:18 *292:17 12.2474
33 *292:18 *292:7 1.06861
34 *292:8 *292:7 192.343
35 *292:8 *292:25 1.07454
36 *292:31 *991:A1 4.29224
37 *292:26 *292:25 2.68933
38 *292:32 *292:31 8.76258
39 *292:28 *292:32 1.01518
40 *292:43 *292:26 8.76258
41 *292:33 *292:32 8.76258
42 *292:33 *292:43 9.94398
43 *292:30 *292:33 147.747
44 *292:29 *292:30 8.76258
45 *292:29 *795:Y 8.76258
46 *292:27 *292:29 1.02111
*END

*D_NET *293 0.0219862

*CONN
*I *796:Y O *C 1515.55 1080.895 *L 0 *D INVX4
*I *795:A I *C 1738.7 1080.8149 *L 0.000787 *D CLKBUFX8

*CAP
1 *796:Y 0.000188157
2 *795:A 2.26774e-05
3 *293:2 0.01076931
4 *293:3 0.01076931
5 *293:6 0.000200975
6 *293:7 1.79119e-05
7 *293:8 1.79119e-05

*RES
1 *293:8 *795:A 8.76437
2 *293:5 *293:8 1.0241
3 *293:2 *293:8 8.76437
4 *293:3 *293:2 780.40979
5 *796:Y *293:6 11.3842
6 *293:7 *293:3 8.76437
7 *293:7 *293:6 8.76437
8 *293:4 *293:7 1.0241
*END

*D_NET *294 0.0217157

*CONN
*I *797:Y O *C 1293.55 1080.895 *L 0 *D INVX4
*I *796:A I *C 1515.385 1080.775 *L 0.00161 *D INVX4

*CAP
1 *797:Y 0.000178257
2 *796:A 9.90316e-06
3 *294:2 0.0104678
4 *294:5 0.000191035
5 *294:6 1.78896e-05
6 *294:7 0.00566429
7 *294:8 0.000171389
8 *294:9 1.78896e-05
9 *294:10 0.0048214
10 *294:11 1.35769e-05
11 *294:12 0.000162124

*RES
1 *294:11 *796:A 0.600641
2 *294:11 *294:12 0.33786
3 *294:8 *294:12 9.58522
4 *294:9 *294:8 8.75934
5 *294:4 *294:9 1.01984
6 *294:10 *294:9 8.75934
7 *294:2 *294:10 348.916
8 *294:7 *294:2 410.037323
9 *797:Y *294:5 10.7865
10 *294:6 *294:7 8.75934
11 *294:6 *294:5 8.75934
12 *294:3 *294:6 1.01984
*END

*D_NET *295 0.0217239

*CONN
*I *798:Y O *C 1071.55 1080.895 *L 0 *D INVX4
*I *797:A I *C 1293.385 1080.775 *L 0.00161 *D INVX4

*CAP
1 *798:Y 0.000178319
2 *797:A 9.9155e-06
3 *295:4 0.000191113
4 *295:5 1.79119e-05
5 *295:6 0.01048084
6 *295:7 0.000171282
7 *295:8 1.79119e-05
8 *295:9 0.01048084
9 *295:10 1.35938e-05
10 *295:11 0.000162166

*RES
1 *295:10 *797:A 0.601641
2 *295:10 *295:11 0.335531
3 *295:7 *295:11 9.59155
4 *295:8 *295:7 8.75851
5 *295:3 *295:8 1.01816
6 *295:9 *295:8 8.75851
7 *295:6 *295:9 758.253296
8 *798:Y *295:4 10.7833
9 *295:5 *295:6 8.75851
10 *295:5 *295:4 8.75851
11 *295:2 *295:5 1.01816
*END

*D_NET *296 0.0220318

*CONN
*I *799:Y O *C 893.95 1034.5649 *L 0 *D INVX4
*I *798:A I *C 1071.385 1080.775 *L 0.00161 *D INVX4

*CAP
1 *799:Y 2.26234e-05
2 *798:A 2.26234e-05
3 *296:2 0.000149127
4 *296:3 4.47113e-05
5 *296:4 0.000149127
6 *296:5 0.00372081
7 *296:6 0.00877292
8 *296:7 4.84596e-05
9 *296:8 3.02538e-05
10 *296:9 0.00509307
11 *296:10 0.00197988
12 *296:11 0.00199822

*RES
1 *296:8 *798:A 8.76272
2 *296:7 *296:8 1.67937
3 *296:7 *296:11 2.15784
4 *296:10 *296:11 149.989
5 *296:9 *296:10 8.76272
6 *296:6 *296:9 307.427063
7 *296:5 *296:6 223.468
8 *296:3 *296:5 2.58003
9 *296:4 *296:3 8.76272
10 *296:2 *296:4 9.41477
11 *799:Y *296:2 8.76272
*END

*D_NET *297 0.0322128

*CONN
*I *969:A1 I *C 892.2 707.72 *L 0.000212 *D AOI22XL
*I *800:Y O *C 874.965 707.705 *L 0 *D CLKINVX6
*I *799:A I *C 893.785 1034.6851 *L 0.00161 *D INVX4

*CAP
1 *969:A1 3.0093e-05
2 *800:Y 2.2742e-05
3 *799:A 9.87786e-06
4 *297:3 2.59581e-05
5 *297:4 2.59581e-05
6 *297:5 0.000820092
7 *297:6 4.29572e-05
8 *297:7 2.59581e-05
9 *297:8 5.42133e-05
10 *297:9 0.000820092
11 *297:10 6.70775e-05
12 *297:11 0.0103021
13 *297:12 0.01505454
14 *297:13 5.23756e-05
15 *297:14 0.00480225
16 *297:15 4.29572e-05
17 *297:16 1.33236e-05

*RES
1 *297:16 *799:A 0.600167
2 *297:15 *297:16 0.300083
3 *297:13 *297:15 2.40067
4 *297:14 *297:13 8.76243
5 *297:6 *969:A1 1.8005
6 *297:12 *297:14 366.834
7 *297:11 *297:12 786.650574
8 *297:7 *297:6 8.76243
9 *297:10 *297:11 3.2409
10 *297:7 *297:8 1.34437
11 *297:8 *297:10 3.00083
12 *297:9 *297:8 8.76243
13 *297:5 *297:9 58.7683
14 *297:3 *297:5 8.76243
15 *297:4 *297:3 1.34437
16 *800:Y *297:4 8.76243
*END

*D_NET *298 0.0160291

*CONN
*I *801:Y O *C 831.53 582.77 *L 0 *D INVX3
*I *800:A I *C 874.1 707.845 *L 0.00241 *D CLKINVX6

*CAP
1 *801:Y 2.26663e-05
2 *800:A 2.26663e-05
3 *298:2 0.00309466
4 *298:3 0.00214249
5 *298:4 0.00308999
6 *298:5 0.000419752
7 *298:6 0.000424427
8 *298:7 0.00214249
9 *298:8 0.00233501
10 *298:9 0.00233501

*RES
1 *298:9 *800:A 8.76093
2 *298:8 *298:9 174.875
3 *298:7 *298:8 8.76093
4 *298:3 *298:7 128.828
5 *298:5 *801:Y 8.76093
6 *298:4 *298:3 8.76093
7 *298:5 *298:6 30.2693
8 *298:2 *298:4 234.732849
9 *298:2 *298:6 1.0781
*END

*D_NET *299 0.0205528

*CONN
*I *972:A1 I *C 768.6 583.52 *L 0.000212 *D AOI22XL
*I *802:Y O *C 768.33 441.71 *L 0 *D INVX3
*I *801:A I *C 830.9 583.395 *L 0.0012 *D INVX3

*CAP
1 *972:A1 2.27267e-05
2 *802:Y 2.27267e-05
3 *801:A 2.27267e-05
4 *299:3 2.18176e-05
5 *299:4 2.18176e-05
6 *299:5 0.00661952
7 *299:6 0.00660599
8 *299:7 0.0030781
9 *299:8 0.0030781
10 *299:9 0.000149087
11 *299:10 0.000153834
12 *299:11 2.50498e-05
13 *299:11 *268:15 1.21e-06
14 *299:5 *268:16 1.21e-06
15 *299:5 *268:17 0.00036449
16 *299:6 *268:18 0.000364490001

*RES
1 *299:4 *801:A 8.75945
2 *299:4 *299:3 1.5027
3 *299:7 *299:3 8.75945
4 *299:8 *299:7 221.788
5 *299:11 *299:8 8.75945
6 *299:5 *972:A1 8.75945
7 *299:5 *299:11 1.35923
8 *299:6 *299:5 494.878998
9 *299:10 *299:6 1.07983
10 *299:9 *299:10 9.41641
11 *802:Y *299:9 8.75945
*END

*D_NET *300 0.0241017

*CONN
*I *803:Y O *C 596.75 393.475 *L 0 *D INVX4
*I *802:A I *C 767.7 441.085 *L 0.0012 *D INVX3

*CAP
1 *803:Y 2.27111e-05
2 *802:A 2.27111e-05
3 *300:2 0.0013425
4 *300:3 0.00979194
5 *300:4 0.0013425
6 *300:5 0.00979194
7 *300:6 0.000893654
8 *300:7 0.000893654

*RES
1 *300:7 *802:A 8.75787
2 *300:6 *300:7 66.588
3 *300:5 *300:6 8.75787
4 *300:3 *300:5 512.918457
5 *300:4 *300:3 8.75787
6 *300:2 *300:4 100.899
7 *803:Y *300:2 8.75787
*END

*D_NET *301 0.0213795

*CONN
*I *804:Y O *C 380.73 393.83 *L 0 *D INVX3
*I *803:A I *C 596.585 393.355 *L 0.00161 *D INVX4

*CAP
1 *804:Y 2.26711e-05
2 *803:A 2.26711e-05
3 *301:2 0.01053722
4 *301:3 0.00703784
5 *301:4 6.47974e-05
6 *301:5 6.47974e-05
7 *301:6 5.59541e-05
8 *301:7 5.59541e-05
9 *301:8 0.00351723

*RES
1 *301:5 *803:A 8.75944
2 *301:5 *301:4 5.26965
3 *301:8 *301:4 8.75944
4 *301:2 *301:8 254.366
5 *301:3 *301:2 509.368866
6 *301:7 *301:3 8.75944
7 *301:6 *301:7 3.36543
8 *804:Y *301:6 8.75944
*END

*D_NET *302 0.008603

*CONN
*I *805:Y O *C 294.13 393.34 *L 0 *D INVX2
*I *804:A I *C 380.1 393.205 *L 0.0012 *D INVX3

*CAP
1 *805:Y 2.26727e-05
2 *804:A 9.90594e-05
3 *302:3 1.78651e-05
4 *302:4 2.63525e-05
5 *302:5 0.00388967
6 *302:6 3.03292e-05
7 *302:7 0.00011188
8 *302:8 1.74497e-05
9 *302:9 1.74497e-05
10 *302:10 0.00388569
11 *302:6 *392:8 2.86e-06
12 *302:4 *392:9 2.86e-06
13 *302:10 *392:8 0.00023943
14 *302:5 *392:9 0.000239430005

*RES
1 *302:7 *804:A 5.99043
2 *302:8 *302:7 8.76293
3 *302:8 *302:9 0.672673
4 *302:10 *302:9 8.76293
5 *302:5 *302:10 297.867004
6 *302:5 *302:6 1.02719
7 *302:4 *302:6 1.42261
8 *302:3 *302:4 8.76293
9 *302:3 *805:Y 8.76293
10 *302:2 *302:3 1.02265
*END

*D_NET *303 0.0416279

*CONN
*I *986:A1 I *C 1509.2 1329.08 *L 0.000212 *D AOI22XL
*I *984:A1 I *C 1636.2 1448.78 *L 0.000212 *D AOI22XL
*I *982:A1 I *C 1574.6 1384.88 *L 0.000212 *D AOI22XL
*I *979:A1 I *C 1451 1267.52 *L 0.000212 *D AOI22XL
*I *806:Y O *C 1636.35 1339.225 *L 0 *D CLKBUFX6

*CAP
1 *986:A1 7.50434e-05
2 *984:A1 2.27196e-05
3 *982:A1 2.27196e-05
4 *979:A1 2.27196e-05
5 *806:Y 2.27196e-05
6 *303:5 0.000423639
7 *303:6 0.000423639
8 *303:7 2.21076e-05
9 *303:8 2.67739e-05
10 *303:9 0.00150247
11 *303:10 0.00283191
12 *303:11 0.00149781
13 *303:12 0.00283191
14 *303:13 0.000960877
15 *303:14 0.000979083
16 *303:15 7.1295e-05
17 *303:16 3.61065e-05
18 *303:17 5.04114e-05
19 *303:18 6.86942e-05
20 *303:19 0.000787764
21 *303:20 0.00369709
22 *303:21 0.000769482
23 *303:22 0.00307357
24 *303:23 5.87496e-05
25 *303:24 0.000151464
26 *303:25 0.00369709
27 *303:26 0.00198165
28 *303:27 0.00184166
29 *303:28 2.67739e-05
30 *303:29 2.21076e-05
31 *303:30 8.95778e-05
32 *303:31 8.95778e-05
33 *303:32 2.67739e-05
34 *303:33 3.14402e-05
35 *303:34 3.14402e-05
36 *303:35 0.00307563
37 *303:36 2.67739e-05
38 *303:37 1.97362e-05
39 *303:38 7.88682e-05
40 *303:39 6.92296e-05
41 *303:40 6.83117e-05
42 *303:41 5.30888e-05
43 *303:42 0.00495409
44 *303:43 0.00501322

*RES
1 *303:37 *984:A1 8.76035
2 *303:37 *303:38 0.738199
3 *303:32 *806:Y 8.76035
4 *303:38 *303:43 5.39808
5 *303:32 *303:33 1.34952
6 *303:42 *303:43 377.958099
7 *303:30 *303:33 1.07846
8 *303:41 *303:42 8.76035
9 *303:30 *303:31 9.2794
10 *303:40 *303:41 2.39915
11 *303:31 *303:34 1.07846
12 *303:39 *303:40 2.57793
13 *303:34 *303:36 1.34952
14 *303:35 *303:39 2.39915
15 *303:35 *303:36 8.76035
16 *303:22 *303:35 183.356
17 *303:29 *982:A1 8.76035
18 *303:22 *303:23 3.86978
19 *303:28 *303:29 1.50523
20 *303:24 *303:23 8.76035
21 *303:27 *303:28 1.07846
22 *303:24 *303:26 9.45241
23 *303:26 *303:27 137.772
24 *303:25 *303:26 8.76035
25 *303:20 *303:25 194.141
26 *303:21 *303:20 8.76035
27 *303:19 *303:21 56.7318
28 *303:18 *303:19 2.15693
29 *303:17 *303:18 2.20306
30 *986:A1 *303:17 8.76035
31 *303:15 *986:A1 2.99317
32 *303:16 *303:15 8.76035
33 *303:14 *303:16 2.15693
34 *303:13 *303:14 75.6424
35 *303:12 *303:13 8.76035
36 *303:10 *303:12 170.172
37 *303:11 *303:10 8.76035
38 *303:7 *979:A1 8.76035
39 *303:9 *303:11 112.783
40 *303:7 *303:8 1.50523
41 *303:6 *303:9 1.07846
42 *303:5 *303:8 1.07846
43 *303:5 *303:6 30.5603
*END

*D_NET *304 0.0302918

*CONN
*I *807:Y O *C 1641.5649 1018.925 *L 0 *D CLKINVX6
*I *806:A I *C 1636.9 1339.215 *L 0.000787 *D CLKBUFX6

*CAP
1 *807:Y 2.2654e-05
2 *806:A 2.2654e-05
3 *304:2 0.00133205
4 *304:3 0.01099725
5 *304:4 0.00968298
6 *304:5 0.000209591
7 *304:6 3.40649e-05
8 *304:7 0.000210766
9 *304:8 0.00292001
10 *304:9 3.28902e-05
11 *304:10 0.00291532
12 *304:11 0.000201872
13 *304:12 0.000206571
14 *304:2 *315:5 8.574e-05
15 *304:3 *315:2 8.574e-05
16 *304:3 *315:5 0.00019707
17 *304:4 *315:2 0.00019707
18 *304:3 *315:2 0.00046886
19 *304:4 *315:3 0.000468860004

*RES
1 *304:11 *807:Y 8.76234
2 *304:11 *304:12 13.4508
3 *304:8 *304:12 1.08475
4 *304:8 *304:10 221.276
5 *304:9 *304:10 8.76234
6 *304:2 *806:A 8.76234
7 *304:6 *304:9 1.19322
8 *304:3 *304:2 111.235
9 *304:4 *304:3 789.887878
10 *304:6 *304:7 1.28964
11 *304:5 *304:4 8.76234
12 *304:5 *304:7 11.3898
*END

*D_NET *305 0.00902013

*CONN
*I *808:Y O *C 1731.9301 1019.2 *L 0 *D INVX2
*I *807:A I *C 1640.7 1019.065 *L 0.00241 *D CLKINVX6

*CAP
1 *808:Y 3.738e-05
2 *807:A 2.26996e-05
3 *305:2 1.78493e-05
4 *305:3 1.78493e-05
5 *305:5 1.79139e-05
6 *305:6 0.00423823
7 *305:7 5.01849e-05
8 *305:8 0.00423823
9 *305:8 *316:4 0.00018988
10 *305:6 *316:5 0.000189880004

*RES
1 *305:7 *808:Y 1.79544
2 *305:3 *305:7 8.76195
3 *305:3 *305:2 0.675125
4 *305:8 *305:2 8.76195
5 *305:6 *305:8 320.615814
6 *305:5 *807:A 8.76195
7 *305:5 *305:6 8.76195
8 *305:4 *305:5 1.02247
*END

*D_NET *306 0.0333646

*CONN
*I *985:A1 I *C 1780.2 830.84 *L 0.000212 *D AOI22XL
*I *983:A1 I *C 1776.6 1018.94 *L 0.000212 *D AOI22XL
*I *981:A1 I *C 1780.6 892.4 *L 0.000212 *D AOI22XL
*I *980:A1 I *C 1779.6 953.96 *L 0.000212 *D AOI22XL
*I *809:Y O *C 1692.165 830.825 *L 0 *D CLKINVX6
*I *808:A I *C 1731.5 1019.065 *L 0.000801 *D INVX2

*CAP
1 *985:A1 3.00546e-05
2 *983:A1 2.2674e-05
3 *981:A1 8.14534e-05
4 *980:A1 2.08787e-05
5 *809:Y 2.2674e-05
6 *808:A 2.2674e-05
7 *306:6 0.00266555
8 *306:7 0.00267027
9 *306:8 0.000239373
10 *306:9 0.000336585
11 *306:10 0.000104061
12 *306:11 3.18499e-05
13 *306:12 3.18499e-05
14 *306:13 0.000474092
15 *306:14 0.000469371
16 *306:15 5.58538e-05
17 *306:16 6.05082e-05
18 *306:17 0.000293166
19 *306:18 0.000293166
20 *306:19 4.38851e-05
21 *306:20 3.91641e-05
22 *306:21 1.94823e-05
23 *306:22 3.63714e-05
24 *306:23 5.8181e-05
25 *306:24 0.00435759
26 *306:25 0.00429136
27 *306:26 0.00017441
28 *306:27 0.00017441
29 *306:28 0.0015641
30 *306:29 0.00156883
31 *306:30 0.000808018
32 *306:31 0.000803363
33 *306:32 0.0016667
34 *306:33 0.0016667
35 *306:34 8.02565e-05
36 *306:35 0.000119487
37 *306:38 1.78865e-05
38 *306:39 0.00222684
39 *306:40 0.00023791
40 *306:41 0.00023791
41 *306:42 0.00023279
42 *306:43 0.00222684
43 *306:44 4.60793e-05
44 *306:45 7.76633e-05
45 *306:46 3.36452e-05
46 *306:47 4.29542e-05
47 *306:48 1.78865e-05
48 *306:49 0.00023279
49 *306:28 *205:21 7.131e-05
50 *306:29 *205:20 7.131e-05
51 *306:28 *205:6 4.12e-06
52 *306:29 *205:7 4.12e-06
53 *306:28 *205:10 9.891e-05
54 *306:29 *205:11 9.891e-05
55 *306:30 *205:19 6.011e-05
56 *306:31 *205:18 6.011e-05
57 *306:30 *205:8 8.58e-06
58 *306:31 *205:9 8.58e-06
59 *306:32 *205:8 0.00032329
60 *306:33 *205:9 0.00032329
61 *306:26 *205:10 1.09e-05
62 *306:27 *205:11 1.08999835e-05
63 *306:30 *232:10 8.289e-05
64 *306:31 *232:11 8.289e-05
65 *306:17 *232:2 1.728e-05
66 *306:18 *232:3 1.728e-05
67 *306:32 *232:2 0.00019314
68 *306:33 *232:3 0.00019314
69 *306:30 *232:12 2.255e-05
70 *306:31 *232:13 2.255e-05
71 *306:32 *232:14 5.987e-05
72 *306:33 *232:15 5.987e-05
73 *306:15 *232:14 8.24e-06
74 *306:16 *232:15 8.23999238e-06
75 *306:19 *188:4 5.75e-06
76 *306:20 *188:5 5.75e-06
77 *306:6 *188:4 0.00020058
78 *306:7 *188:5 0.000200579995

*RES
1 *306:41 *808:A 8.76108
2 *306:40 *306:41 16.8183
3 *306:39 *306:40 8.76108
4 *306:39 *306:43 135.888
5 *306:8 *983:A1 8.76108
6 *306:9 *306:43 8.76108
7 *306:9 *306:8 16.0205
8 *306:10 *306:9 6.70103
9 *306:42 *306:10 8.76108
10 *306:42 *306:49 12.792
11 *306:28 *306:49 8.76108
12 *306:29 *306:28 126.489
13 *306:26 *306:29 1.06991
14 *306:27 *306:26 12.9422
15 *306:46 *980:A1 1.22477
16 *306:27 *306:30 1.07461
17 *306:11 *306:46 8.76108
18 *306:31 *306:30 69.4035
19 *306:12 *306:11 1.46409
20 *306:34 *306:31 8.76108
21 *306:35 *306:12 8.76108
22 *306:35 *306:34 6.28339
23 *306:44 *306:35 2.11636
24 *306:6 *306:44 8.76108
25 *306:7 *306:6 214.635
26 *306:7 *306:19 1.06991
27 *306:20 *306:19 2.69355
28 *306:45 *306:20 8.76108
29 *306:45 *981:A1 7.27353
30 *306:15 *981:A1 8.76108
31 *306:16 *306:15 4.56121
32 *306:16 *306:32 1.06991
33 *306:33 *306:32 159.271
34 *306:33 *306:17 1.07461
35 *306:47 *985:A1 1.8395
36 *306:18 *306:17 20.9008
37 *306:48 *306:47 8.76108
38 *306:37 *306:48 1.14969
39 *306:13 *306:18 1.07461
40 *306:21 *306:48 8.76108
41 *306:14 *306:13 33.5709
42 *306:22 *306:21 0.708582
43 *306:23 *306:14 8.76108
44 *306:22 *306:24 2.03659
45 *306:24 *306:23 5.88452
46 *306:25 *306:24 307.534149
47 *306:38 *306:25 8.76108
48 *306:38 *809:Y 8.76108
49 *306:36 *306:38 1.02299
*END

*D_NET *307 0.0310288

*CONN
*I *810:Y O *C 1386.5649 830.825 *L 0 *D CLKINVX6
*I *809:A I *C 1691.3 830.965 *L 0.00241 *D CLKINVX6

*CAP
1 *810:Y 2.26963e-05
2 *809:A 2.26963e-05
3 *307:2 0.0126096
4 *307:3 0.01416572
5 *307:5 1.75086e-05
6 *307:6 1.75086e-05
7 *307:7 0.00129952
8 *307:8 1.79409e-05
9 *307:9 0.00285562

*RES
1 *307:5 *810:Y 8.76243
2 *307:5 *307:6 0.672187
3 *307:7 *307:6 8.76243
4 *307:3 *307:9 199.459
5 *307:2 *307:3 786.650574
6 *307:7 *307:2 93.566
7 *307:8 *809:A 8.76243
8 *307:8 *307:9 8.76243
9 *307:4 *307:8 1.02028
*END

*D_NET *308 0.03101

*CONN
*I *811:Y O *C 1081.165 830.825 *L 0 *D CLKINVX6
*I *810:A I *C 1385.7 830.965 *L 0.00241 *D CLKINVX6

*CAP
1 *811:Y 2.26939e-05
2 *810:A 2.26939e-05
3 *308:2 0.0150227
4 *308:5 1.78801e-05
5 *308:6 0.0114008
6 *308:7 0.000432789
7 *308:8 0.00364364
8 *308:9 1.78801e-05
9 *308:10 0.000428893

*RES
1 *308:9 *810:A 8.76243
2 *308:4 *308:9 1.02028
3 *308:10 *308:9 8.76243
4 *308:7 *308:10 30.4405
5 *308:7 *308:8 1.02028
6 *308:2 *308:8 262.585
7 *308:6 *308:2 786.650574
8 *308:5 *308:6 8.76243
9 *308:5 *811:Y 8.76243
10 *308:3 *308:5 1.02028
*END

*D_NET *309 0.0213424

*CONN
*I *812:Y O *C 862.75 831.235 *L 0 *D INVX4
*I *811:A I *C 1080.3 830.965 *L 0.00241 *D CLKINVX6

*CAP
1 *812:Y 2.27355e-05
2 *811:A 5.93381e-05
3 *309:2 0.01056718
4 *309:5 1.78982e-05
5 *309:6 0.00517402
6 *309:7 7.22377e-05
7 *309:8 1.78982e-05
8 *309:9 0.00541105

*RES
1 *309:7 *811:A 3.59678
2 *309:8 *309:7 8.75893
3 *309:4 *309:8 1.02168
4 *309:9 *309:8 8.75893
5 *309:2 *309:9 391.558868
6 *309:6 *309:2 374.483
7 *309:5 *309:6 8.75893
8 *309:5 *812:Y 8.75893
9 *309:3 *309:5 1.02168
*END

*D_NET *310 0.0213061

*CONN
*I *813:Y O *C 644.75 831.235 *L 0 *D INVX4
*I *812:A I *C 862.585 831.115 *L 0.00161 *D INVX4

*CAP
1 *813:Y 0.00015841
2 *812:A 9.96989e-06
3 *310:4 0.000171229
4 *310:5 1.78825e-05
5 *310:6 0.01037106
6 *310:7 9.21028e-05
7 *310:8 1.78825e-05
8 *310:9 0.01037106
9 *310:10 1.36097e-05
10 *310:11 8.29242e-05

*RES
1 *310:10 *812:A 0.596024
2 *310:10 *310:11 0.34386
3 *310:7 *310:11 4.79111
4 *310:8 *310:7 8.75697
5 *310:3 *310:8 1.02012
6 *310:9 *310:8 8.75697
7 *310:6 *310:9 751.173401
8 *813:Y *310:4 9.58223
9 *310:5 *310:6 8.75697
10 *310:5 *310:4 8.75697
11 *310:2 *310:5 1.02012
*END

*D_NET *311 0.0213257

*CONN
*I *814:Y O *C 426.55 831.235 *L 0 *D INVX4
*I *813:A I *C 644.585 831.115 *L 0.00161 *D INVX4

*CAP
1 *814:Y 5.93493e-05
2 *813:A 9.97068e-06
3 *311:2 0.01037188
4 *311:5 7.2327e-05
5 *311:6 1.78839e-05
6 *311:7 0.00471297
7 *311:8 0.000191026
8 *311:9 1.78839e-05
9 *311:10 0.0056768
10 *311:11 1.36108e-05
11 *311:12 0.000182004

*RES
1 *311:11 *813:A 0.601802
2 *311:11 *311:12 0.338514
3 *311:8 *311:12 10.7886
4 *311:9 *311:8 8.76374
5 *311:4 *311:9 1.02181
6 *311:10 *311:9 8.76374
7 *311:2 *311:10 410.830261
8 *311:7 *311:2 341.053
9 *814:Y *311:5 3.59828
10 *311:6 *311:7 8.76374
11 *311:6 *311:5 8.76374
12 *311:3 *311:6 1.02181
*END

*D_NET *312 0.0216491

*CONN
*I *815:Y O *C 251.95 786.775 *L 0 *D INVX4
*I *814:A I *C 426.385 831.115 *L 0.00161 *D INVX4

*CAP
1 *815:Y 2.26429e-05
2 *814:A 2.26429e-05
3 *312:2 0.000141551
4 *312:3 0.000141551
5 *312:4 4.47561e-05
6 *312:5 0.00867779
7 *312:6 0.000222721
8 *312:7 0.000204448
9 *312:8 0.00866256
10 *312:9 0.00174509
11 *312:10 0.00176337

*RES
1 *312:7 *814:A 8.76226
2 *312:6 *312:7 13.7852
3 *312:6 *312:10 2.16067
4 *312:9 *312:10 131.825
5 *312:8 *312:9 8.76226
6 *312:5 *312:8 522.514282
7 *312:4 *312:5 2.59918
8 *312:2 *312:4 8.76226
9 *312:3 *312:2 8.75428
10 *815:Y *312:3 8.76226
*END

*D_NET *313 0.0213738

*CONN
*I *816:Y O *C 251.95 562.605 *L 0 *D INVX4
*I *815:A I *C 251.785 786.655 *L 0.00161 *D INVX4

*CAP
1 *816:Y 2.26424e-05
2 *815:A 2.26424e-05
3 *313:2 0.00899314
4 *313:3 0.00897489
5 *313:4 0.000802226
6 *313:5 0.000815812
7 *313:6 3.12876e-05
8 *313:7 3.59533e-05
9 *313:2 *410:8 0.00011046
10 *313:3 *410:9 0.00011046
11 *313:2 *410:9 5.213e-05
12 *313:3 *410:6 5.213e-05
13 *313:2 *410:6 0.00041648
14 *313:3 *410:7 0.000416479994
15 *313:2 *418:2 0.00025858
16 *313:3 *418:3 0.000258580004

*RES
1 *313:3 *816:Y 8.75901
2 *313:3 *313:2 734.054382
3 *313:5 *313:2 2.15055
4 *313:6 *815:A 8.75901
5 *313:5 *313:4 58.5689
6 *313:7 *313:6 1.68012
7 *313:7 *313:4 1.07527
*END

*D_NET *314 0.0418607

*CONN
*I *986:B1 I *C 1509.58 1328.89 *L 0.000212 *D AOI22XL
*I *984:B1 I *C 1636.58 1448.59 *L 0.000212 *D AOI22XL
*I *982:B1 I *C 1574.98 1385.0699 *L 0.000212 *D AOI22XL
*I *979:B1 I *C 1451.38 1267.33 *L 0.000212 *D AOI22XL
*I *817:Y O *C 1636.75 1337.115 *L 0 *D CLKBUFX6

*CAP
1 *986:B1 2.26095e-05
2 *984:B1 2.26095e-05
3 *982:B1 2.26095e-05
4 *979:B1 2.26095e-05
5 *817:Y 2.26095e-05
6 *314:5 0.000957789
7 *314:6 0.000934093
8 *314:7 1.75369e-05
9 *314:8 2.22472e-05
10 *314:9 0.00473547
11 *314:10 0.00474909
12 *314:11 0.000345085
13 *314:12 0.00043161
14 *314:13 0.000111598
15 *314:14 0.00176405
16 *314:15 0.00207696
17 *314:16 0.000319795
18 *314:17 0.00157383
19 *314:18 0.00159209
20 *314:19 0.00044393
21 *314:20 0.000425741
22 *314:22 0.0032578
23 *314:23 0.000836698
24 *314:24 0.000836698
25 *314:25 0.0032578
26 *314:26 6.57271e-05
27 *314:27 3.52912e-05
28 *314:28 3.14504e-05
29 *314:29 0.00332882
30 *314:30 2.68126e-05
31 *314:31 1.78992e-05
32 *314:32 6.57271e-05
33 *314:33 0.00306367
34 *314:34 5.87703e-05
35 *314:35 0.00332882
36 *314:36 0.00303439

*RES
1 *314:7 *984:B1 8.76089
2 *314:8 *314:7 0.677303
3 *314:9 *314:8 1.07928
4 *314:10 *314:9 360.875885
5 *314:13 *817:Y 8.76089
6 *314:11 *314:10 2.15856
7 *314:13 *314:12 11.4976
8 *314:12 *314:11 22.8741
9 *314:36 *314:12 8.76089
10 *314:33 *314:36 182.756
11 *314:33 *314:34 3.87109
12 *314:16 *314:34 8.76089
13 *314:14 *982:B1 8.76089
14 *314:16 *314:15 22.2574
15 *314:15 *314:14 132.371
16 *314:20 *979:B1 8.76089
17 *314:35 *314:15 8.76089
18 *314:20 *314:19 30.3905
19 *314:29 *314:35 198.934
20 *314:19 *314:18 2.15856
21 *314:30 *314:29 8.76089
22 *314:18 *314:17 118.836
23 *314:28 *314:30 1.3491
24 *314:22 *314:17 8.76089
25 *314:24 *314:28 1.07928
26 *314:22 *314:25 170.174
27 *314:23 *314:24 61.4584
28 *314:6 *314:25 8.76089
29 *314:23 *314:27 1.07928
30 *314:6 *314:5 69.7622
31 *314:5 *314:27 1.3491
32 *314:26 *314:5 8.76089
33 *314:26 *314:32 3.5407
34 *314:31 *986:B1 8.76089
35 *314:31 *314:32 8.76089
36 *314:21 *314:31 1.02421
*END

*D_NET *315 0.0300223

*CONN
*I *818:Y O *C 1639.5649 1018.925 *L 0 *D CLKINVX6
*I *817:A I *C 1637.3 1337.125 *L 0.000787 *D CLKBUFX6

*CAP
1 *818:Y 2.25243e-05
2 *817:A 1.98131e-05
3 *315:2 0.0136679
4 *315:3 0.00953385
5 *315:4 3.25352e-05
6 *315:5 0.00421101
7 *315:6 1.96045e-05
8 *315:7 7.86267e-05
9 *315:2 *237:2 0.0004664
10 *315:3 *237:3 0.000466399999
11 *315:5 *304:2 8.574e-05
12 *315:2 *304:3 8.574e-05
13 *315:5 *304:3 0.00019707
14 *315:2 *304:4 0.00019707
15 *315:2 *304:3 0.00046886
16 *315:3 *304:4 0.000468860004

*RES
1 *315:6 *818:Y 8.75621
2 *315:6 *315:7 0.73673
3 *315:3 *315:7 5.39866
4 *315:2 *315:5 340.031
5 *315:3 *315:2 791.513428
6 *315:4 *315:5 8.75621
7 *817:A *315:4 1.19568
*END

*D_NET *316 0.00942395

*CONN
*I *819:Y O *C 1732.73 1019.2 *L 0 *D INVX2
*I *818:A I *C 1638.7 1019.065 *L 0.00241 *D CLKINVX6

*CAP
1 *819:Y 2.26375e-05
2 *818:A 2.26375e-05
3 *316:2 5.35192e-05
4 *316:3 5.35192e-05
5 *316:4 0.00442851
6 *316:5 0.00442851
7 *316:6 1.74343e-05
8 *316:7 1.74343e-05
9 *316:4 *305:8 0.00018988
10 *316:5 *305:6 0.000189880004

*RES
1 *316:6 *819:Y 8.76102
2 *316:6 *316:7 0.675096
3 *316:4 *316:7 8.76102
4 *316:5 *316:4 332.654663
5 *316:2 *316:5 8.76102
6 *316:3 *316:2 3.01509
7 *818:A *316:3 8.76102
*END

*D_NET *317 0.0330976

*CONN
*I *985:B1 I *C 1780.58 831.03 *L 0.000212 *D AOI22XL
*I *983:B1 I *C 1776.98 1019.13 *L 0.000212 *D AOI22XL
*I *981:B1 I *C 1780.98 892.59 *L 0.000212 *D AOI22XL
*I *980:B1 I *C 1779.98 954.15 *L 0.000212 *D AOI22XL
*I *820:Y O *C 1780.765 741.905 *L 0 *D CLKINVX6
*I *819:A I *C 1732.3 1019.065 *L 0.000801 *D INVX2

*CAP
1 *985:B1 2.2657e-05
2 *983:B1 2.2657e-05
3 *981:B1 2.2657e-05
4 *980:B1 2.2657e-05
5 *820:Y 2.2657e-05
6 *819:A 2.2657e-05
7 *317:6 0.00191259
8 *317:7 0.00193415
9 *317:8 4.9708e-05
10 *317:9 3.28869e-05
11 *317:10 0.000769651
12 *317:11 0.000769651
13 *317:12 0.00014013
14 *317:13 0.00014013
15 *317:14 9.26876e-05
16 *317:15 9.26876e-05
17 *317:16 3.14451e-05
18 *317:17 2.67764e-05
19 *317:18 2.17644e-05
20 *317:19 2.17644e-05
21 *317:20 0.00234225
22 *317:21 0.00234699
23 *317:22 6.2135e-05
24 *317:23 6.2135e-05
25 *317:24 7.89561e-05
26 *317:25 0.00045362
27 *317:26 0.00307503
28 *317:27 0.00302587
29 *317:28 0.00449947
30 *317:29 0.00447963
31 *317:37 1.7851e-05
32 *317:38 0.00181544
33 *317:39 0.000398488
34 *317:40 0.0018324
35 *317:41 1.7851e-05
36 *317:42 1.7851e-05
37 *317:43 4.05766e-05
38 *317:44 2.25197e-05
39 *317:45 5.22484e-05
40 *317:46 4.05766e-05
41 *317:47 1.7851e-05
42 *317:48 1.7851e-05
43 *317:49 4.49707e-05
44 *317:50 1.7851e-05
45 *317:51 5.22484e-05
46 *317:52 7.42188e-05
47 *317:26 *232:18 2.011e-05
48 *317:27 *232:19 2.011e-05
49 *317:26 *232:20 6e-06
50 *317:27 *232:21 6e-06
51 *317:26 *232:22 3.38e-06
52 *317:27 *232:23 3.38e-06
53 *317:49 *232:24 9.6e-07
54 *317:28 *232:25 9.6e-07
55 *317:28 *232:24 0.00021385
56 *317:29 *232:25 0.00021385
57 *317:20 *232:16 0.00020321
58 *317:21 *232:17 0.000203210002
59 *317:20 *263:22 4.98e-06
60 *317:21 *263:21 4.98e-06
61 *317:20 *263:22 0.00043207
62 *317:21 *263:21 0.000432070004
63 *317:6 *194:5 5.985e-05
64 *317:7 *194:4 5.985e-05
65 *317:7 *194:5 2.88e-06
66 *317:8 *194:4 2.88e-06
67 *317:8 *194:5 1.21e-06
68 *317:9 *194:4 1.21e-06
69 *317:10 *194:5 4.814e-05
70 *317:11 *194:4 4.814e-05
71 *317:12 *194:5 6.85e-06
72 *317:13 *194:4 6.85e-06
73 *317:14 *194:5 5.77e-06
74 *317:15 *194:4 5.77000148e-06

*RES
1 *317:32 *317:42 1.01563
2 *317:42 *820:Y 8.75917
3 *317:43 *317:42 8.75917
4 *317:47 *985:B1 8.75917
5 *317:34 *317:47 1.01563
6 *317:43 *317:46 2.10277
7 *317:48 *317:47 8.75917
8 *317:35 *317:48 1.01563
9 *317:29 *317:46 8.75917
10 *317:18 *981:B1 8.75917
11 *317:28 *317:48 8.75917
12 *317:29 *317:28 312.488312
13 *317:19 *317:18 0.801056
14 *317:28 *317:49 1.33986
15 *317:50 *317:19 8.75917
16 *317:36 *317:50 1.01086
17 *317:49 *317:27 2.14569
18 *317:26 *317:50 8.75917
19 *317:27 *317:26 215.427
20 *317:26 *317:52 4.69667
21 *317:51 *317:52 8.75917
22 *317:45 *317:51 2.80847
23 *317:44 *317:45 8.75917
24 *317:21 *317:44 1.07284
25 *317:20 *980:B1 8.75917
26 *317:33 *317:20 1.01563
27 *317:21 *317:20 214.507
28 *317:22 *317:20 8.75917
29 *317:23 *317:22 5.8458
30 *317:17 *317:23 8.75917
31 *317:17 *317:16 1.33986
32 *317:15 *317:16 1.07284
33 *317:15 *317:14 6.90911
34 *317:14 *317:11 1.07284
35 *317:11 *317:10 59.302
36 *317:13 *317:10 1.07284
37 *317:13 *317:12 11.4198
38 *317:12 *317:9 1.07284
39 *317:9 *317:8 1.34463
40 *317:8 *317:7 3.7478
41 *317:7 *317:6 146.441
42 *317:41 *983:B1 8.75917
43 *317:31 *317:41 1.01563
44 *317:24 *317:6 8.75917
45 *317:25 *317:41 8.75917
46 *317:25 *317:24 5.96978
47 *317:39 *317:25 26.8688
48 *317:39 *317:40 2.03602
49 *317:38 *317:40 130.305
50 *317:37 *819:A 8.75917
51 *317:37 *317:38 8.75917
52 *317:30 *317:37 1.02039
*END

*D_NET *318 0.0231989

*CONN
*I *821:Y O *C 1780.35 513.175 *L 0 *D INVX4
*I *820:A I *C 1779.9 742.045 *L 0.00241 *D CLKINVX6

*CAP
1 *821:Y 2.27324e-05
2 *820:A 2.27324e-05
3 *318:2 1.88595e-05
4 *318:3 1.88595e-05
5 *318:4 0.01103532
6 *318:5 0.01103532
7 *318:9 1.80175e-05
8 *318:10 0.000370622
9 *318:11 0.000375506
10 *318:12 0.000124944
11 *318:13 1.80175e-05
12 *318:14 1.80175e-05
13 *318:15 0.000120229

*RES
1 *318:13 *820:A 8.75791
2 *318:7 *318:13 1.01098
3 *318:14 *318:13 8.75791
4 *318:8 *318:14 1.01098
5 *318:15 *318:14 8.75791
6 *318:12 *318:15 8.00555
7 *318:4 *318:12 1.06976
8 *318:5 *318:4 770.41394
9 *318:11 *318:5 1.06976
10 *318:10 *318:11 26.0269
11 *318:2 *318:10 8.75791
12 *318:3 *318:2 0.705335
13 *318:9 *318:3 8.75791
14 *318:9 *821:Y 8.75791
15 *318:6 *318:9 1.01098
*END

*D_NET *319 0.00922081

*CONN
*I *822:Y O *C 1779.9301 422.52 *L 0 *D INVX2
*I *821:A I *C 1780.1851 513.055 *L 0.00161 *D INVX4

*CAP
1 *822:Y 4.24341e-05
2 *821:A 9.912e-06
3 *319:2 5.52929e-05
4 *319:3 2.67892e-05
5 *319:4 3.14505e-05
6 *319:5 3.24685e-05
7 *319:6 2.77536e-05
8 *319:7 0.000322328
9 *319:8 0.000322328
10 *319:9 0.00351126
11 *319:10 0.00351126
12 *319:12 3.53082e-05
13 *319:13 2.27708e-05
14 *319:14 1.78952e-05
15 *319:15 6.11329e-05
16 *319:16 1.69308e-05
17 *319:17 1.69308e-05
18 *319:18 6.99198e-05
19 *319:19 3.64869e-05
20 *319:20 6.99198e-05
21 *319:21 3.58439e-05
22 *319:22 3.46116e-05
23 *319:23 6.11329e-05
24 *319:9 *216:5 0.00016536
25 *319:10 *216:4 0.00016536
26 *319:9 *216:3 1.96e-05
27 *319:10 *216:2 1.95999904e-05
28 *319:9 *243:2 0.00023944
29 *319:10 *243:3 0.000239439993

*RES
1 *319:2 *822:Y 1.98165
2 *319:6 *319:2 8.76049
3 *319:6 *319:5 1.34052
4 *319:8 *319:5 1.07152
5 *319:8 *319:7 22.1164
6 *319:7 *319:4 1.07152
7 *319:4 *319:3 1.34052
8 *319:12 *319:3 8.76049
9 *319:12 *319:19 1.20602
10 *319:18 *319:19 1.30914
11 *319:18 *319:20 3.0442
12 *319:20 *319:21 1.30914
13 *319:21 *319:22 1.20602
14 *319:10 *319:22 8.76049
15 *319:17 *821:A 0.61422
16 *319:10 *319:9 293.821472
17 *319:16 *319:17 0.659054
18 *319:23 *319:9 8.76049
19 *319:13 *319:16 0.61422
20 *319:15 *319:23 7.51859
21 *319:14 *319:13 8.76049
22 *319:14 *319:15 8.76049
23 *319:11 *319:14 1.01772
*END

*D_NET *320 0.0215359

*CONN
*I *823:Y O *C 1649.15 331.915 *L 0 *D INVX4
*I *822:A I *C 1779.5 422.655 *L 0.000801 *D INVX2

*CAP
1 *823:Y 2.27025e-05
2 *822:A 3.51839e-05
3 *320:2 0.00365215
4 *320:3 0.00644072
5 *320:4 0.00365215
6 *320:5 0.00644072
7 *320:6 0.000178082
8 *320:7 0.000182799
9 *320:8 0.000444025
10 *320:9 4.80585e-05
11 *320:10 0.000439308

*RES
1 *320:9 *822:A 3.12361
2 *320:10 *320:9 8.758
3 *320:8 *320:10 31.5157
4 *320:7 *320:8 1.07095
5 *320:6 *320:7 11.4473
6 *320:5 *320:6 8.758
7 *320:3 *320:5 389.921265
8 *320:4 *320:3 8.758
9 *320:2 *320:4 277.108
10 *823:Y *320:2 8.758
*END

*D_NET *321 0.0228443

*CONN
*I *824:Y O *C 1430.55 331.915 *L 0 *D INVX4
*I *823:A I *C 1648.985 331.795 *L 0.00161 *D INVX4

*CAP
1 *824:Y 2.26742e-05
2 *823:A 2.26742e-05
3 *321:2 3.45267e-05
4 *321:3 0.0112531
5 *321:4 3.45267e-05
6 *321:5 0.01125724
7 *321:6 8.15929e-05
8 *321:7 3.02323e-05
9 *321:8 7.76421e-05
10 *321:9 3.02323e-05

*RES
1 *321:9 *823:A 8.75837
2 *321:7 *321:9 1.6861
3 *321:8 *321:7 8.75837
4 *321:6 *321:8 4.97635
5 *321:5 *321:6 1.0304
6 *321:3 *321:5 767.364136
7 *321:4 *824:Y 8.75837
8 *321:2 *321:3 8.75837
9 *321:2 *321:4 2.01396
*END

*D_NET *322 0.0213422

*CONN
*I *825:Y O *C 1212.15 331.915 *L 0 *D INVX4
*I *824:A I *C 1430.385 331.795 *L 0.00161 *D INVX4

*CAP
1 *825:Y 7.91952e-05
2 *824:A 9.9786e-06
3 *322:2 0.01038012
4 *322:5 9.20249e-05
5 *322:6 1.78981e-05
6 *322:7 0.00973642
7 *322:8 0.00017122
8 *322:9 1.78981e-05
9 *322:10 0.000661597
10 *322:11 1.36216e-05
11 *322:12 0.000162192

*RES
1 *322:11 *824:A 0.602646
2 *322:11 *322:12 0.344369
3 *322:8 *322:12 9.58852
4 *322:9 *322:8 8.75988
5 *322:4 *322:9 1.02235
6 *322:10 *322:9 8.75988
7 *322:2 *322:10 47.3184
8 *322:7 *322:2 705.267578
9 *825:Y *322:5 4.78888
10 *322:6 *322:7 8.75988
11 *322:6 *322:5 8.75988
12 *322:3 *322:6 1.02235
*END

*D_NET *323 0.0304866

*CONN
*I *826:Y O *C 906.365 331.505 *L 0 *D CLKINVX6
*I *825:A I *C 1211.985 331.795 *L 0.00161 *D INVX4

*CAP
1 *826:Y 2.27287e-05
2 *825:A 9.95735e-06
3 *323:2 0.01418598
4 *323:3 0.0118815
5 *323:6 1.79665e-05
6 *323:7 0.00305496
7 *323:8 0.000270364
8 *323:9 1.79665e-05
9 *323:10 0.000750481
10 *323:11 1.36372e-05
11 *323:12 0.000261056

*RES
1 *323:11 *825:A 0.600167
2 *323:11 *323:12 0.336093
3 *323:8 *323:12 15.5803
4 *323:9 *323:8 8.76243
5 *323:5 *323:9 1.02028
6 *323:10 *323:9 8.76243
7 *323:3 *323:10 53.7749
8 *323:2 *323:3 786.650574
9 *323:7 *323:2 220.849
10 *323:6 *323:7 8.76243
11 *323:6 *826:Y 8.76243
12 *323:4 *323:6 1.02028
*END

*D_NET *324 0.0337342

*CONN
*I *827:Y O *C 600.365 331.505 *L 0 *D CLKINVX6
*I *826:A I *C 905.5 331.645 *L 0.00241 *D CLKINVX6

*CAP
1 *827:Y 2.27087e-05
2 *826:A 2.27087e-05
3 *324:2 0.00449928
4 *324:3 0.01617622
5 *324:4 0.011695
6 *324:5 3.5544e-05
7 *324:6 3.5544e-05
8 *324:7 2.2215e-05
9 *324:8 1.75252e-05
10 *324:9 3.45567e-05
11 *324:10 3.92465e-05
12 *324:2 *346:8 9.918e-05
13 *324:3 *346:5 9.918e-05
14 *324:3 *346:8 8.505e-05
15 *324:4 *346:5 8.505e-05
16 *324:3 *346:5 0.0003825
17 *324:4 *346:4 0.000382500004

*RES
1 *324:9 *826:A 8.76234
2 *324:9 *324:10 2.01281
3 *324:7 *324:10 1.08475
4 *324:7 *324:8 0.674953
5 *324:2 *324:8 8.76234
6 *324:3 *324:2 295.135
7 *324:4 *324:3 789.887878
8 *324:6 *324:4 8.76234
9 *324:5 *324:6 2.02486
10 *827:Y *324:5 8.76234
*END

*D_NET *325 0.0216308

*CONN
*I *828:Y O *C 381.55 331.915 *L 0 *D INVX4
*I *827:A I *C 599.5 331.645 *L 0.00241 *D CLKINVX6

*CAP
1 *828:Y 2.27225e-05
2 *827:A 2.27225e-05
3 *325:2 0.00372109
4 *325:3 0.01071308
5 *325:4 0.00700997
6 *325:5 4.46276e-05
7 *325:6 4.46276e-05
8 *325:7 2.59919e-05
9 *325:8 2.59919e-05

*RES
1 *325:6 *827:A 8.76401
2 *325:6 *325:5 3.69296
3 *325:2 *325:5 8.76401
4 *325:3 *325:2 268.913
5 *325:4 *325:3 507.383392
6 *325:8 *325:4 8.76401
7 *325:7 *325:8 1.34712
8 *828:Y *325:7 8.76401
*END

*D_NET *326 0.0128711

*CONN
*I *829:Y O *C 251.73 332.27 *L 0 *D INVX3
*I *828:A I *C 381.385 331.795 *L 0.00161 *D INVX4

*CAP
1 *829:Y 2.26748e-05
2 *828:A 9.89775e-06
3 *326:2 3.02331e-05
4 *326:3 3.02331e-05
5 *326:4 0.00589681
6 *326:5 0.000181219
7 *326:6 4.48998e-05
8 *326:7 4.48998e-05
9 *326:8 0.00589681
10 *326:9 1.35869e-05
11 *326:10 0.000172041
12 *326:8 *345:4 0.00026391
13 *326:4 *345:5 0.000263909987

*RES
1 *326:9 *828:A 0.597232
2 *326:9 *326:10 0.339336
3 *326:5 *326:10 10.1869
4 *326:6 *326:5 8.76166
5 *326:6 *326:7 2.68754
6 *326:8 *326:7 8.76166
7 *326:4 *326:8 444.774841
8 *326:2 *326:4 8.76166
9 *326:3 *326:2 1.45915
10 *829:Y *326:3 8.76166
*END

*D_NET *327 0.0374329

*CONN
*I *974:A1 I *C 1139.2 952.88 *L 0.000212 *D AOI22XL
*I *973:A1 I *C 1204 1079.42 *L 0.000212 *D AOI22XL
*I *967:A1 I *C 1080 891.32 *L 0.000212 *D AOI22XL
*I *966:A1 I *C 1203.4 1018.94 *L 0.000212 *D AOI22XL
*I *830:Y O *C 1079.15 827.535 *L 0 *D CLKBUFX6

*CAP
1 *974:A1 2.26879e-05
2 *973:A1 3.09456e-05
3 *967:A1 6.03899e-05
4 *966:A1 2.26879e-05
5 *830:Y 2.26879e-05
6 *327:5 0.00342412
7 *327:6 7.32353e-05
8 *327:7 0.00546637
9 *327:8 0.0030255
10 *327:9 0.00204909
11 *327:10 0.0030255
12 *327:11 0.000862308
13 *327:12 0.00381057
14 *327:13 0.00319132
15 *327:14 0.0029551
16 *327:15 7.68219e-05
17 *327:16 7.68219e-05
18 *327:17 0.00242043
19 *327:18 0.00242043
20 *327:19 0.0032206
21 *327:20 5.88051e-05
22 *327:21 5.3717e-05
23 *327:22 5.8388e-05
24 *327:23 3.07788e-05
25 *327:24 3.67845e-05
26 *327:25 2.21874e-05
27 *327:26 0.000437743
28 *327:27 4.3791e-05
29 *327:28 0.000433072

*RES
1 *327:27 *973:A1 1.79762
2 *327:28 *327:27 8.75914
3 *327:26 *327:28 31.0654
4 *327:18 *327:26 1.07994
5 *327:17 *327:18 183.023
6 *327:17 *327:25 1.07994
7 *327:24 *966:A1 8.75914
8 *327:24 *327:25 0.676672
9 *327:23 *327:24 1.34993
10 *327:16 *327:23 1.07994
11 *327:15 *327:16 5.87474
12 *327:15 *327:22 1.07994
13 *327:21 *327:22 3.36285
14 *327:20 *327:21 8.75914
15 *327:19 *327:20 3.87207
16 *327:13 *327:19 192.346
17 *327:14 *327:13 8.75914
18 *327:12 *974:A1 8.75914
19 *327:12 *327:14 222.95
20 *327:11 *327:12 62.9954
21 *327:10 *327:11 8.75914
22 *327:8 *327:10 180.962
23 *327:6 *967:A1 3.59524
24 *327:9 *327:8 8.75914
25 *327:7 *327:6 8.75914
26 *327:7 *327:9 155.368
27 *327:5 *327:7 223.971451
28 *830:Y *327:5 8.75914
*END

*D_NET *328 0.0212333

*CONN
*I *977:A1 I *C 584.2 641.66 *L 0.000212 *D AOI22XL
*I *831:Y O *C 584.73 424.61 *L 0 *D INVX3

*CAP
1 *977:A1 2.27548e-05
2 *831:Y 2.27548e-05
3 *328:2 0.00994159
4 *328:3 0.00992323
5 *328:4 0.000511681
6 *328:5 0.000525333
7 *328:6 0.000140625
8 *328:7 0.000145328

*RES
1 *328:6 *831:Y 8.76584
2 *328:6 *328:7 8.74378
3 *328:4 *328:7 1.08057
4 *328:3 *977:A1 8.76584
5 *328:4 *328:5 36.9929
6 *328:2 *328:3 722.613586
7 *328:2 *328:5 2.16114
*END

*D_NET *329 0.0224473

*CONN
*I *976:A1 I *C 1136 700.88 *L 0.000212 *D AOI22XL
*I *965:A1 I *C 1073.8 765.86 *L 0.000212 *D AOI22XL
*I *832:Y O *C 1136.15 656.815 *L 0 *D INVX4
*I *830:A I *C 1079.7 827.545 *L 0.000787 *D CLKBUFX6

*CAP
1 *976:A1 8.76514e-05
2 *965:A1 2.26629e-05
3 *832:Y 2.26629e-05
4 *830:A 2.26629e-05
5 *329:4 0.000117284
6 *329:5 0.000117284
7 *329:6 0.000315388
8 *329:7 0.00300226
9 *329:8 0.00302487438
10 *329:9 0.00302487438
11 *329:10 8.38666e-05
12 *329:11 0.00288022
13 *329:12 0.00270958
14 *329:13 0.00288022
15 *329:14 0.00206791
16 *329:15 0.00206791

*RES
1 *329:14 *832:Y 8.75933
2 *329:14 *329:15 155.331
3 *976:A1 *329:15 8.75933
4 *329:10 *976:A1 4.19397
5 *329:11 *329:10 8.75933
6 *329:9 *830:A 8.75933
7 *329:11 *329:13 220.662
8 *329:4 *965:A1 8.75933
9 *329:8 *329:9 229.620636
10 *329:12 *329:13 8.75933
11 *329:5 *329:4 11.6149
12 *329:7 *329:8 8.75933
13 *329:7 *329:12 164.188
14 *329:6 *329:5 8.75933
15 *329:6 *329:7 17.9777
*END

*D_NET *330 0.022742

*CONN
*I *833:Y O *C 720.55 336.885 *L 0 *D INVX4
*I *831:A I *C 584.1 423.985 *L 0.0012 *D INVX3

*CAP
1 *833:Y 2.26896e-05
2 *831:A 2.26896e-05
3 *330:2 0.00685237
4 *330:3 0.000254605
5 *330:4 0.000254605
6 *330:5 0.00424139
7 *330:6 0.00685237
8 *330:7 0.00424139

*RES
1 *330:5 *833:Y 8.76059
2 *330:4 *831:A 8.76059
3 *330:5 *330:7 289.218
4 *330:3 *330:4 17.4901
5 *330:6 *330:7 8.76059
6 *330:2 *330:3 8.76059
7 *330:2 *330:6 408.055542
*END

*D_NET *331 0.00878071

*CONN
*I *834:Y O *C 1136.33 564.34 *L 0 *D INVX2
*I *832:A I *C 1135.985 656.695 *L 0.00161 *D INVX4

*CAP
1 *834:Y 2.00961e-05
2 *832:A 2.2646e-05
3 *331:2 0.000127316
4 *331:3 0.000109041
5 *331:4 3.29673e-05
6 *331:5 0.00396057
7 *331:6 0.00397884
8 *331:6 *4:3 0.00026462
9 *331:5 *4:4 0.000264619999

*RES
1 *331:4 *834:Y 1.19655
2 *331:5 *331:4 8.76007
3 *331:3 *832:A 8.76007
4 *331:5 *331:6 318.767456
5 *331:2 *331:3 7.73377
6 *331:2 *331:6 2.15962
*END

*D_NET *332 0.0324835

*CONN
*I *975:A1 I *C 765.6 337.28 *L 0.000212 *D AOI22XL
*I *835:Y O *C 1047.5649 334.925 *L 0 *D CLKINVX6
*I *833:A I *C 720.385 337.005 *L 0.00161 *D INVX4

*CAP
1 *975:A1 2.25731e-05
2 *835:Y 2.25731e-05
3 *833:A 2.25731e-05
4 *332:3 2.37824e-05
5 *332:4 2.37824e-05
6 *332:5 0.0114313
7 *332:6 0.00189977
8 *332:7 0.00038334
9 *332:8 0.000379309
10 *332:9 2.76118e-05
11 *332:10 2.76118e-05
12 *332:11 7.57812e-05
13 *332:12 7.57812e-05
14 *332:13 0.00368405
15 *332:14 0.0132083
16 *332:13 *226:4 0.0001644
17 *332:14 *226:5 0.0001644
18 *332:14 *226:5 0.0004231
19 *332:5 *226:8 0.000423100008

*RES
1 *332:12 *835:Y 8.76324
2 *332:10 *975:A1 8.76324
3 *332:12 *332:11 9.40176
4 *332:10 *332:9 1.35412
5 *332:13 *332:11 8.76324
6 *332:5 *332:9 8.76324
7 *332:14 *332:13 278.001
8 *332:5 *332:14 721.491638
9 *332:6 *332:5 136.48
10 *332:7 *332:6 1.02385
11 *332:8 *332:7 26.3007
12 *332:3 *332:8 8.76324
13 *332:4 *332:3 1.91558
14 *833:A *332:4 8.76324
*END

*D_NET *333 0.0179158

*CONN
*I *836:Y O *C 1135.9301 383.57 *L 0 *D INVX3
*I *834:A I *C 1135.9 564.205 *L 0.000801 *D INVX2

*CAP
1 *836:Y 2.2612e-05
2 *834:A 2.2612e-05
3 *333:2 0.00775853
4 *333:3 0.00775853
5 *333:4 0.000283775
6 *333:5 0.000288392
7 *333:6 0.000394112
8 *333:7 0.000389377
9 *333:7 *4:3 2.637e-05
10 *333:6 *4:4 2.637e-05
11 *333:5 *4:4 1.774e-05
12 *333:4 *4:5 1.774e-05
13 *333:3 *4:3 5.92e-06
14 *333:2 *4:4 5.92e-06
15 *333:3 *4:4 0.00044889
16 *333:2 *4:5 0.000448889998

*RES
1 *333:7 *834:A 8.75645
2 *333:6 *333:7 29.7178
3 *333:4 *836:Y 8.75645
4 *333:3 *333:6 1.08327
5 *333:4 *333:5 20.9342
6 *333:2 *333:3 591.610779
7 *333:2 *333:5 1.08327
*END

*D_NET *334 0.01421

*CONN
*I *837:Y O *C 1135.33 332.27 *L 0 *D INVX3
*I *836:A I *C 1135.3 382.945 *L 0.0012 *D INVX3
*I *835:A I *C 1046.7 335.065 *L 0.00241 *D CLKINVX6

*CAP
1 *837:Y 2.2701e-05
2 *836:A 2.2701e-05
3 *835:A 2.2701e-05
4 *334:3 0.00200518
5 *334:4 0.00202344
6 *334:5 0.000248045
7 *334:6 0.000439441
8 *334:7 0.000216597
9 *334:8 0.00454957
10 *334:9 0.00454957
11 *334:10 5.50516e-05
12 *334:11 5.50516e-05

*RES
1 *334:3 *836:A 8.76105
2 *334:4 *334:3 151.275
3 *334:7 *837:Y 8.76105
4 *334:5 *334:4 2.16032
5 *334:7 *334:6 13.4793
6 *334:6 *334:5 15.5342
7 *334:8 *334:6 8.76105
8 *334:9 *334:8 313.922424
9 *334:11 *334:9 8.76105
10 *334:10 *334:11 3.37221
11 *835:A *334:10 8.76105
*END

*D_NET *335 0.031839

*CONN
*I *1006:A0 I *C 252.9 393.205 *L 0.000211 *D OA21X1
*I *838:Y O *C 426.365 251.795 *L 0 *D CLKINVX6

*CAP
1 *1006:A0 2.13086e-05
2 *838:Y 2.27198e-05
3 *335:2 2.69533e-05
4 *335:3 3.16102e-05
5 *335:4 3.16102e-05
6 *335:5 2.69533e-05
7 *335:6 0.000236653
8 *335:7 0.000236653
9 *335:8 0.00924809
10 *335:9 3.41503e-05
11 *335:10 0.00633713
12 *335:11 0.00924809
13 *335:12 0.00633713

*RES
1 *335:10 *838:Y 8.75975
2 *335:10 *335:12 480.914
3 *335:9 *1006:A0 1.18118
4 *335:11 *335:12 8.75975
5 *335:2 *335:9 8.75975
6 *335:8 *335:11 519.528748
7 *335:3 *335:2 1.34765
8 *335:5 *335:8 8.75975
9 *335:6 *335:3 1.07812
10 *335:5 *335:4 1.34765
11 *335:7 *335:6 15.5456
12 *335:7 *335:4 1.07812
*END

*D_NET *336 0.0301874

*CONN
*I *839:Y O *C 734.165 251.795 *L 0 *D CLKINVX6
*I *838:A I *C 425.5 251.655 *L 0.00241 *D CLKINVX6

*CAP
1 *839:Y 2.26911e-05
2 *838:A 2.26911e-05
3 *336:4 1.7797e-05
4 *336:5 0.000106559
5 *336:6 0.00471686
6 *336:7 0.01457904
7 *336:8 0.000110564
8 *336:9 0.000354604
9 *336:10 0.00988799
10 *336:11 1.7797e-05
11 *336:12 0.000350822

*RES
1 *336:3 *336:11 1.02299
2 *336:11 *839:Y 8.7607
3 *336:12 *336:11 8.7607
4 *336:9 *336:12 24.6823
5 *336:9 *336:10 1.02299
6 *336:7 *336:10 713.219177
7 *336:6 *336:7 339.741
8 *336:6 *336:8 1.02299
9 *336:5 *336:8 7.05209
10 *336:4 *838:A 8.7607
11 *336:4 *336:5 8.7607
12 *336:2 *336:4 1.02299
*END

*D_NET *337 0.0301715

*CONN
*I *840:Y O *C 1041.965 251.795 *L 0 *D CLKINVX6
*I *839:A I *C 733.3 251.655 *L 0.00241 *D CLKINVX6

*CAP
1 *840:Y 2.27398e-05
2 *839:A 2.27398e-05
3 *337:4 1.7842e-05
4 *337:5 0.0108589
5 *337:6 0.01146346
6 *337:7 0.00385754
7 *337:8 0.00326998
8 *337:9 0.000328677
9 *337:10 1.7842e-05
10 *337:11 0.00031171

*RES
1 *337:3 *337:10 1.01649
2 *337:10 *840:Y 8.76569
3 *337:11 *337:10 8.76569
4 *337:9 *337:11 21.8604
5 *337:8 *337:9 2.04493
6 *337:7 *337:8 234.222
7 *337:6 *337:7 44.3187
8 *337:5 *337:6 783.721924
9 *337:4 *839:A 8.76569
10 *337:4 *337:5 8.76569
11 *337:2 *337:4 1.01649
*END

*D_NET *338 0.023878

*CONN
*I *841:Y O *C 1259.55 251.385 *L 0 *D INVX4
*I *840:A I *C 1041.1 251.655 *L 0.00241 *D CLKINVX6

*CAP
1 *841:Y 2.27652e-05
2 *840:A 2.27652e-05
3 *338:3 1.75256e-05
4 *338:4 0.0118366
5 *338:5 1.75256e-05
6 *338:6 5.31188e-05
7 *338:7 0.01184062
8 *338:8 1.7887e-05
9 *338:9 4.9144e-05

*RES
1 *338:5 *840:A 8.7565
2 *338:3 *338:5 0.666382
3 *338:4 *338:3 8.7565
4 *338:4 *338:7 766.175842
5 *338:6 *338:7 1.01711
6 *338:6 *338:9 3.86969
7 *338:8 *338:9 8.7565
8 *338:8 *841:Y 8.7565
9 *338:2 *338:8 1.01711
*END

*D_NET *339 0.030311

*CONN
*I *1000:A0 I *C 250.7 519.745 *L 0.000211 *D OA21X1
*I *842:Y O *C 558.965 518.555 *L 0 *D CLKINVX6

*CAP
1 *1000:A0 2.26222e-05
2 *842:Y 2.26222e-05
3 *339:2 8.2948e-05
4 *339:3 8.2948e-05
5 *339:5 0.0108692
6 *339:6 0.01335626
7 *339:7 0.00397335
8 *339:8 0.000198505
9 *339:9 0.00149021
10 *339:10 1.79347e-05
11 *339:11 0.000194428

*RES
1 *339:2 *1000:A0 8.76243
2 *339:3 *339:2 5.4135
3 *339:5 *339:3 8.76243
4 *339:7 *339:9 107.106
5 *339:6 *339:7 180.974
6 *339:5 *339:6 786.650574
7 *339:8 *339:9 1.02028
8 *339:8 *339:11 13.4557
9 *339:10 *339:11 8.76243
10 *339:10 *842:Y 8.76243
11 *339:4 *339:10 1.02028
*END

*D_NET *340 0.0301773

*CONN
*I *843:Y O *C 866.765 518.555 *L 0 *D CLKINVX6
*I *842:A I *C 558.1 518.415 *L 0.00241 *D CLKINVX6

*CAP
1 *843:Y 2.27059e-05
2 *842:A 2.27059e-05
3 *340:3 1.78895e-05
4 *340:4 0.0108711
5 *340:5 0.01503062
6 *340:6 1.74308e-05
7 *340:7 0.00417743
8 *340:8 1.74308e-05

*RES
1 *340:8 *843:Y 8.76243
2 *340:6 *340:8 0.672187
3 *340:7 *340:6 8.76243
4 *340:5 *340:7 302.232
5 *340:4 *340:5 786.650574
6 *340:3 *842:A 8.76243
7 *340:3 *340:4 8.76243
8 *340:2 *340:3 1.02028
*END

*D_NET *341 0.0217011

*CONN
*I *844:Y O *C 1086.35 518.145 *L 0 *D INVX4
*I *843:A I *C 865.9 518.415 *L 0.00241 *D CLKINVX6

*CAP
1 *844:Y 2.27464e-05
2 *843:A 2.27464e-05
3 *341:2 1.96813e-05
4 *341:3 1.96813e-05
5 *341:5 1.79067e-05
6 *341:6 0.000214074
7 *341:7 0.00480691
8 *341:8 0.01057224
9 *341:9 0.000217946
10 *341:10 0.00578711

*RES
1 *341:3 *844:Y 8.7624
2 *341:3 *341:2 0.734421
3 *341:10 *341:2 8.7624
4 *341:8 *341:10 414.922424
5 *341:7 *341:8 347.577
6 *341:7 *341:9 1.02566
7 *341:6 *341:9 14.8657
8 *341:5 *843:A 8.7624
9 *341:5 *341:6 8.7624
10 *341:4 *341:5 1.01933
*END

*D_NET *342 0.022344

*CONN
*I *845:Y O *C 1262.95 466.845 *L 0 *D INVX4
*I *844:A I *C 1086.1851 518.265 *L 0.00161 *D INVX4

*CAP
1 *845:Y 2.26252e-05
2 *844:A 2.26252e-05
3 *342:2 6.27884e-05
4 *342:3 6.27884e-05
5 *342:4 5.2346e-05
6 *342:5 4.76603e-05
7 *342:6 0.00877364
8 *342:7 0.00226052
9 *342:8 0.0022652
10 *342:9 0.00877364

*RES
1 *342:3 *845:Y 8.7596
2 *342:3 *342:2 4.05283
3 *342:9 *342:2 8.7596
4 *342:6 *342:9 529.09613
5 *342:7 *342:6 8.7596
6 *342:5 *844:A 8.7596
7 *342:7 *342:8 171.511
8 *342:4 *342:5 5.81282
9 *342:4 *342:8 1.08183
*END

*D_NET *343 0.0231533

*CONN
*I *1004:A1N I *C 1263.7 249.565 *L 0.00021 *D OAI2BB1X1
*I *846:Y O *C 1269.75 249.835 *L 0 *D INVX4
*I *845:A I *C 1262.785 466.965 *L 0.00161 *D INVX4

*CAP
1 *1004:A1N 2.27411e-05
2 *846:Y 2.27411e-05
3 *845:A 2.27411e-05
4 *343:3 0.0102951
5 *343:4 0.01034958
6 *343:5 6.88551e-05
7 *343:6 8.71743e-05
8 *343:7 0.000269419
9 *343:8 0.000269419
10 *343:9 0.000280158
11 *343:10 2.68472e-05
12 *343:12 0.000333063
13 *343:13 1.78455e-05
14 *343:3 *281:2 0.00053921
15 *343:4 *281:3 0.00053921
16 *343:5 *281:4 4.66e-06
17 *343:6 *281:5 4.66003075e-06

*RES
1 *343:5 *845:A 8.76176
2 *343:6 *343:5 4.88922
3 *343:6 *343:3 2.15903
4 *343:4 *343:3 748.644897
5 *343:10 *1004:A1N 8.76176
6 *343:4 *343:12 6.45423
7 *343:10 *343:9 1.49647
8 *343:9 *343:12 16.7467
9 *343:8 *343:9 8.76176
10 *343:8 *343:7 21.3389
11 *343:13 *343:7 8.76176
12 *343:13 *846:Y 8.76176
13 *343:11 *343:13 1.05095
*END

*D_NET *344 0.0057015

*CONN
*I *847:Y O *C 1323.53 249.7 *L 0 *D INVX2
*I *846:A I *C 1269.585 249.715 *L 0.00161 *D INVX4

*CAP
1 *847:Y 2.26595e-05
2 *846:A 2.26595e-05
3 *344:3 1.11941e-05
4 *344:4 2.94777e-05
5 *344:5 4.50476e-05
6 *344:6 2.6764e-05
7 *344:7 0.00222304
8 *344:8 1.78766e-05
9 *344:9 0.00222304
10 *344:9 *378:7 0.00015438
11 *344:7 *378:8 0.000154379997
12 *344:9 *430:7 0.00038549
13 *344:7 *430:8 0.000385489987

*RES
1 *344:3 *846:A 8.7597
2 *344:3 *344:4 0.1817
3 *344:4 *344:5 2.22436
4 *344:5 *344:6 1.33637
5 *344:7 *344:6 8.7597
6 *344:7 *344:9 192.062729
7 *344:8 *344:9 8.7597
8 *344:8 *847:Y 8.7597
9 *344:2 *344:8 1.05503
*END

*D_NET *345 0.0311826

*CONN
*I *1002:B I *C 250.565 333.665 *L 0.000392 *D NOR2BX1
*I *848:Y O *C 560.365 331.505 *L 0 *D CLKINVX6

*CAP
1 *1002:B 2.27415e-05
2 *848:Y 2.27415e-05
3 *345:2 8.74831e-05
4 *345:3 8.29758e-05
5 *345:4 0.01342671
6 *345:5 0.0109311
7 *345:6 2.21269e-05
8 *345:7 2.66342e-05
9 *345:9 0.00398694
10 *345:10 0.0014952
11 *345:11 0.000268186
12 *345:12 1.78244e-05
13 *345:13 0.000264088
14 *345:4 *326:8 0.00026391
15 *345:5 *326:4 0.000263909987

*RES
1 *345:6 *1002:B 8.75965
2 *345:7 *345:6 1.49614
3 *345:7 *345:2 1.07384
4 *345:3 *345:2 5.4054
5 *345:5 *345:3 8.75965
6 *345:9 *345:10 107.541
7 *345:4 *345:9 181.708
8 *345:5 *345:4 790.733093
9 *345:10 *345:11 1.02558
10 *345:11 *345:13 18.4845
11 *345:12 *345:13 8.75965
12 *345:12 *848:Y 8.75965
13 *345:8 *345:12 1.02558
*END

*D_NET *346 0.0317207

*CONN
*I *849:Y O *C 870.365 331.505 *L 0 *D CLKINVX6
*I *848:A I *C 559.5 331.645 *L 0.00241 *D CLKINVX6

*CAP
1 *849:Y 2.25502e-05
2 *848:A 2.25502e-05
3 *346:3 1.79007e-05
4 *346:4 0.0111363
5 *346:5 0.01523532
6 *346:6 1.79007e-05
7 *346:7 1.79007e-05
8 *346:8 0.00411692
9 *346:8 *324:2 9.918e-05
10 *346:5 *324:3 9.918e-05
11 *346:8 *324:3 8.505e-05
12 *346:5 *324:4 8.505e-05
13 *346:5 *324:3 0.0003825
14 *346:4 *324:4 0.000382500004

*RES
1 *346:6 *849:Y 8.76636
2 *346:6 *346:7 0.675263
3 *346:8 *346:7 8.76636
4 *346:5 *346:8 311.296
5 *346:4 *346:5 790.250549
6 *346:3 *848:A 8.76636
7 *346:3 *346:4 8.76636
8 *346:2 *346:3 1.02495
*END

*D_NET *347 0.0274092

*CONN
*I *996:A1 I *C 1134.5 330.695 *L 0.000212 *D AOI21XL
*I *850:Y O *C 1137.365 330.455 *L 0 *D CLKINVX6
*I *849:A I *C 869.5 331.645 *L 0.00241 *D CLKINVX6

*CAP
1 *996:A1 2.26974e-05
2 *850:Y 2.26974e-05
3 *849:A 2.26974e-05
4 *347:3 5.5066e-05
5 *347:4 5.5066e-05
6 *347:5 0.00844897
7 *347:6 0.01293458
8 *347:7 0.00463719
9 *347:10 1.79606e-05
10 *347:11 1.79606e-05
11 *347:12 0.000140527
12 *347:5 *143:8 0.00030932
13 *347:6 *143:4 0.00030932
14 *347:6 *143:4 0.00020754
15 *347:7 *143:6 0.000207540019

*RES
1 *347:3 *849:A 8.76094
2 *347:4 *347:3 3.36752
3 *347:9 *347:11 1.01746
4 *347:11 *850:Y 8.76094
5 *347:7 *347:4 8.76094
6 *347:12 *347:11 8.76094
7 *347:6 *347:5 590.089478
8 *347:7 *347:6 350.429
9 *347:5 *347:12 8.49982
10 *347:10 *996:A1 8.76094
11 *347:10 *347:5 8.76094
12 *347:8 *347:10 1.01746
*END

*D_NET *348 0.0205989

*CONN
*I *851:Y O *C 1261.55 247.965 *L 0 *D INVX4
*I *850:A I *C 1136.5 330.315 *L 0.00241 *D CLKINVX6

*CAP
1 *851:Y 2.26515e-05
2 *850:A 2.26515e-05
3 *348:2 0.00639855
4 *348:3 0.000274551
5 *348:4 0.000274551
6 *348:5 0.00339957
7 *348:6 0.00639855
8 *348:7 0.00339489
9 *348:8 7.2348e-05
10 *348:9 5.87766e-05
11 *348:10 0.000102615
12 *348:11 0.000116186
13 *348:12 2.9193e-05
14 *348:13 3.38796e-05

*RES
1 *348:12 *851:Y 8.76356
2 *348:12 *348:13 1.39113
3 *348:10 *348:13 1.10953
4 *348:10 *348:11 8.00323
5 *348:8 *348:11 2.15147
6 *348:8 *348:9 6.36992
7 *348:5 *348:9 1.07573
8 *348:4 *850:A 8.76356
9 *348:5 *348:7 257.331
10 *348:3 *348:4 18.9126
11 *348:6 *348:7 8.76356
12 *348:2 *348:3 8.76356
13 *348:2 *348:6 369.105927
*END

*D_NET *349 0.0229642

*CONN
*I *987:B1 I *C 1392.98 1510.15 *L 0.000212 *D AOI22XL
*I *852:Y O *C 1205.55 1465.485 *L 0 *D INVX4

*CAP
1 *987:B1 2.26605e-05
2 *852:Y 2.26605e-05
3 *349:2 8.29942e-05
4 *349:3 8.29942e-05
5 *349:4 0.000302518
6 *349:5 0.000297844
7 *349:6 0.00160649
8 *349:7 0.00928161
9 *349:8 0.00160182
10 *349:9 0.00016613
11 *349:10 0.000170804
12 *349:11 0.00928161
13 *349:12 2.43601e-05
14 *349:13 1.96863e-05

*RES
1 *349:13 *987:B1 8.76356
2 *349:12 *349:13 0.736002
3 *349:2 *349:12 1.07833
4 *349:3 *349:2 5.22904
5 *349:4 *349:3 1.07833
6 *349:5 *349:4 20.4283
7 *349:11 *349:5 8.76356
8 *349:7 *349:11 560.867737
9 *349:9 *852:Y 8.76356
10 *349:8 *349:7 8.76356
11 *349:9 *349:10 10.7576
12 *349:6 *349:8 121.064
13 *349:6 *349:10 1.07833
*END

*D_NET *350 0.0200479

*CONN
*I *853:Y O *C 1205.55 1250.025 *L 0 *D INVX4
*I *852:A I *C 1205.385 1465.605 *L 0.00161 *D INVX4

*CAP
1 *853:Y 2.27161e-05
2 *852:A 2.27161e-05
3 *350:2 0.000267248
4 *350:3 0.000248986
5 *350:4 1.75196e-05
6 *350:5 2.22707e-05
7 *350:6 0.00971639
8 *350:7 0.00973005

*RES
1 *350:4 *853:Y 8.76276
2 *350:4 *350:5 0.669693
3 *350:5 *350:6 1.07832
4 *350:3 *852:A 8.76276
5 *350:6 *350:7 743.881165
6 *350:2 *350:3 17.0488
7 *350:2 *350:7 2.15664
*END

*D_NET *351 0.0416206

*CONN
*I *974:B1 I *C 1139.58 952.69 *L 0.000212 *D AOI22XL
*I *973:B1 I *C 1204.38 1079.23 *L 0.000212 *D AOI22XL
*I *966:B1 I *C 1203.78 1019.13 *L 0.000212 *D AOI22XL
*I *854:Y O *C 1138.715 891.155 *L 0 *D CLKBUFX8
*I *853:A I *C 1205.385 1250.145 *L 0.00161 *D INVX4

*CAP
1 *974:B1 2.2674e-05
2 *973:B1 2.2674e-05
3 *966:B1 2.2674e-05
4 *854:Y 2.2674e-05
5 *853:A 2.2674e-05
6 *351:5 4.06529e-05
7 *351:6 5.42802e-05
8 *351:7 8.93218e-05
9 *351:8 5.3135e-05
10 *351:9 0.00297098
11 *351:10 0.00547829
12 *351:11 0.00251876
13 *351:12 8.79476e-05
14 *351:13 8.79476e-05
15 *351:15 0.000396451
16 *351:16 0.000401147
17 *351:17 0.00376297
18 *351:18 1.78644e-05
19 *351:19 0.00376297
20 *351:20 2.67965e-05
21 *351:21 4.92415e-05
22 *351:22 6.28688e-05
23 *351:23 3.09191e-05
24 *351:24 6.28688e-05
25 *351:25 0.00246528
26 *351:26 0.00245165
27 *351:27 0.000426225
28 *351:28 0.000408017
29 *351:29 0.000382023
30 *351:30 0.000422904
31 *351:31 0.00749112
32 *351:32 0.00750475

*RES
1 *351:28 *853:A 8.76145
2 *351:27 *351:28 29.1961
3 *351:23 *973:B1 8.76145
4 *351:27 *351:32 2.15976
5 *351:23 *351:24 1.35531
6 *351:31 *351:32 573.044067
7 *351:24 *351:30 3.23526
8 *351:30 *351:31 1.07551
9 *351:29 *351:30 29.1961
10 *351:26 *351:29 1.07551
11 *351:25 *351:26 185.048
12 *351:22 *351:25 2.15976
13 *351:21 *351:22 2.70188
14 *351:5 *351:21 1.07551
15 *351:6 *351:5 3.96976
16 *351:20 *966:B1 8.76145
17 *351:7 *351:6 2.15976
18 *351:7 *351:20 1.34657
19 *351:8 *351:7 3.37517
20 *351:15 *854:Y 8.76145
21 *351:19 *351:8 8.76145
22 *351:15 *351:16 28.2517
23 *351:17 *351:19 196.538
24 *351:16 *351:11 1.07551
25 *351:9 *351:17 8.76145
26 *351:11 *351:10 191.764
27 *351:10 *351:9 229.809
28 *351:13 *351:10 8.76145
29 *351:13 *351:12 4.97531
30 *351:18 *974:B1 8.76145
31 *351:18 *351:12 8.76145
32 *351:14 *351:18 1.02304
*END

*D_NET *352 0.0197851

*CONN
*I *967:B1 I *C 1080.38 891.13 *L 0.000212 *D AOI22XL
*I *855:Y O *C 1080.73 743.51 *L 0 *D INVX3
*I *854:A I *C 1139.3 891.005 *L 0.000787 *D CLKBUFX8

*CAP
1 *967:B1 2.2617e-05
2 *855:Y 2.2617e-05
3 *854:A 2.2617e-05
4 *352:3 0.00655843
5 *352:4 0.00655843
6 *352:5 0.0025291
7 *352:6 0.0025251
8 *352:7 0.000259395
9 *352:8 0.000263298
10 *352:9 3.53266e-05
11 *352:10 5.0538e-05
12 *352:11 2.67201e-05
13 *352:12 0.000261997
14 *352:13 0.0002667
15 *352:14 2.59195e-05
16 *352:15 2.59195e-05
17 *352:5 *248:7 0.00015095
18 *352:6 *248:5 0.00015095
19 *352:7 *248:8 1.415e-05
20 *352:8 *248:6 1.415e-05

*RES
1 *352:14 *854:A 8.75859
2 *352:14 *352:15 1.34278
3 *352:7 *352:15 8.75859
4 *352:8 *352:7 17.769
5 *352:8 *352:5 1.02234
6 *352:12 *855:Y 8.75859
7 *352:6 *352:5 191.934
8 *352:12 *352:13 18.1581
9 *352:11 *352:6 8.75859
10 *352:4 *352:13 1.08338
11 *352:10 *967:B1 8.75859
12 *352:10 *352:11 1.35041
13 *352:4 *352:3 500.002686
14 *352:9 *352:10 3.1357
15 *352:9 *352:3 1.08338
*END

*D_NET *353 0.00914322

*CONN
*I *856:Y O *C 1080.53 646.42 *L 0 *D INVX2
*I *855:A I *C 1080.1 744.135 *L 0.0012 *D INVX3

*CAP
1 *856:Y 2.26501e-05
2 *855:A 2.26501e-05
3 *353:2 0.00392692
4 *353:3 0.00392225
5 *353:4 0.000622039
6 *353:5 0.000626713

*RES
1 *353:4 *856:Y 8.76256
2 *353:3 *855:A 8.76256
3 *353:4 *353:5 45.7357
4 *353:2 *353:3 298.628601
5 *353:2 *353:5 1.07994
*END

*D_NET *354 0.0293554

*CONN
*I *997:A1 I *C 1326 646.16 *L 0.000212 *D AOI22XL
*I *857:Y O *C 1079.365 601.685 *L 0 *D CLKINVX6
*I *856:A I *C 1080.1 646.285 *L 0.000801 *D INVX2

*CAP
1 *997:A1 3.00848e-05
2 *857:Y 4.95184e-05
3 *856:A 2.26103e-05
4 *354:3 0.012246
5 *354:5 6.24119e-05
6 *354:6 0.00207959
7 *354:7 0.00209005
8 *354:8 0.0113141
9 *354:9 1.73782e-05
10 *354:10 3.28877e-05
11 *354:11 1.79388e-05
12 *354:12 0.000949633
13 *354:13 3.41957e-05
14 *354:14 0.000182377
15 *354:15 4.40994e-05
16 *354:16 0.000182377

*RES
1 *354:15 *997:A1 1.79397
2 *857:Y *354:5 2.99799
3 *354:15 *354:16 1.28829
4 *354:6 *354:5 8.76519
5 *354:9 *856:A 8.76519
6 *354:14 *354:16 10.1859
7 *354:6 *354:7 156.714
8 *354:7 *354:9 0.674246
9 *354:13 *354:14 1.28829
10 *354:8 *354:7 8.76519
11 *354:10 *354:13 1.20401
12 *354:3 *354:12 68.1711
13 *354:8 *354:3 789.060059
14 *354:11 *354:10 8.76519
15 *354:11 *354:12 8.76519
16 *354:4 *354:11 1.02341
*END

*D_NET *355 0.0294898

*CONN
*I *858:Y O *C 1043.765 337.295 *L 0 *D CLKINVX6
*I *857:A I *C 1078.5 601.825 *L 0.00241 *D CLKINVX6

*CAP
1 *858:Y 2.26652e-05
2 *857:A 2.26652e-05
3 *355:2 0.00532701
4 *355:3 0.00200537
5 *355:4 0.00532701
6 *355:5 0.00200537
7 *355:6 0.00738988
8 *355:7 0.00738988

*RES
1 *355:7 *857:A 8.76182
2 *355:6 *355:7 562.955261
3 *355:5 *355:6 8.76182
4 *355:3 *355:5 106.061
5 *355:4 *355:3 8.76182
6 *355:2 *355:4 372.609
7 *858:Y *355:2 8.76182
*END

*D_NET *356 0.0306869

*CONN
*I *998:A1 I *C 951 333.86 *L 0.000212 *D AOI22XL
*I *970:B1 I *C 1012.78 335.13 *L 0.000212 *D AOI22XL
*I *859:Y O *C 864.165 460.415 *L 0 *D CLKINVX6
*I *858:A I *C 1042.9 337.155 *L 0.00241 *D CLKINVX6

*CAP
1 *998:A1 0.0001039
2 *970:B1 2.26691e-05
3 *859:Y 2.26691e-05
4 *858:A 2.26691e-05
5 *356:4 1.78011e-05
6 *356:5 1.78011e-05
7 *356:6 0.000120175
8 *356:7 0.00221619
9 *356:8 0.00313001
10 *356:9 0.000963291
11 *356:10 0.00147393
12 *356:11 0.00155552
13 *356:12 0.00447468
14 *356:13 0.00475695
15 *356:14 0.0047616
16 *356:15 0.000345486
17 *356:16 0.000340836
18 *356:17 0.000116688
19 *356:18 5.92157e-05
20 *356:19 0.000812019
21 *356:20 0.00447468
22 *356:21 0.000759705
23 *356:22 5.92157e-05
24 *356:23 5.92157e-05

*RES
1 *356:23 *858:A 8.76182
2 *356:22 *356:23 3.36396
3 *356:10 *356:22 8.76182
4 *356:5 *970:B1 8.76182
5 *356:11 *356:10 106.25
6 *356:5 *356:4 0.676117
7 *356:6 *356:11 7.18236
8 *356:17 *998:A1 5.39231
9 *356:7 *356:4 8.76182
10 *356:7 *356:6 2.13365
11 *356:18 *356:17 8.76182
12 *356:8 *356:7 158.134
13 *356:9 *356:8 68.8808
14 *356:16 *859:Y 8.76182
15 *356:18 *356:19 3.36396
16 *356:19 *356:9 8.76182
17 *356:15 *356:16 24.2128
18 *356:19 *356:21 55.824
19 *356:14 *356:15 1.08068
20 *356:20 *356:21 8.76182
21 *356:13 *356:14 363.19696
22 *356:12 *356:20 255.866
23 *356:12 *356:13 8.76182
*END

*D_NET *357 0.0300792

*CONN
*I *860:Y O *C 556.965 460.415 *L 0 *D CLKINVX6
*I *859:A I *C 863.3 460.275 *L 0.00241 *D CLKINVX6

*CAP
1 *860:Y 2.26321e-05
2 *859:A 2.26321e-05
3 *357:2 0.01498178
4 *357:4 1.78314e-05
5 *357:5 0.010871
6 *357:6 1.73742e-05
7 *357:7 0.00412865
8 *357:8 1.73742e-05

*RES
1 *357:8 *859:A 8.76243
2 *357:6 *357:8 0.672187
3 *357:7 *357:6 8.76243
4 *357:2 *357:7 298.691
5 *357:5 *357:2 786.650574
6 *357:4 *357:5 8.76243
7 *357:4 *860:Y 8.76243
8 *357:3 *357:4 1.02028
*END

*D_NET *358 0.021476

*CONN
*I *861:Y O *C 337.35 460.005 *L 0 *D INVX4
*I *860:A I *C 556.1 460.275 *L 0.00241 *D CLKINVX6

*CAP
1 *861:Y 0.000117962
2 *860:A 2.25919e-05
3 *358:2 0.01057542
4 *358:5 0.000130872
5 *358:6 1.79121e-05
6 *358:7 0.00900948
7 *358:8 1.79121e-05
8 *358:9 0.00158385

*RES
1 *358:8 *860:A 8.76247
2 *358:4 *358:8 1.02561
3 *358:9 *358:8 8.76247
4 *358:2 *358:9 114.181
5 *358:7 *358:2 652.565063
6 *861:Y *358:5 7.18921
7 *358:6 *358:7 8.76247
8 *358:6 *358:5 8.76247
9 *358:3 *358:6 1.02561
*END

*D_NET *359 0.0043784

*CONN
*I *862:Y O *C 292.73 459.65 *L 0 *D INVX1
*I *861:A I *C 337.185 460.125 *L 0.00161 *D INVX4

*CAP
1 *862:Y 2.26687e-05
2 *861:A 9.91942e-06
3 *359:4 1.79026e-05
4 *359:5 0.00195216
5 *359:6 0.00020098
6 *359:7 1.79026e-05
7 *359:8 0.00195216
8 *359:9 0.000191478
9 *359:10 1.32259e-05

*RES
1 *359:10 *861:A 0.599794
2 *359:9 *359:10 0.305272
3 *359:6 *359:9 11.3853
4 *359:7 *359:6 8.76043
5 *359:3 *359:7 1.02115
6 *359:8 *359:7 8.76043
7 *359:5 *359:8 140.889267
8 *359:4 *359:5 8.76043
9 *359:4 *862:Y 8.76043
10 *359:2 *359:4 1.02115
*END

*D_NET *360 0.0172403

*CONN
*I *987:A1 I *C 1392.6 1510.34 *L 0.000212 *D AOI22XL
*I *863:Y O *C 1565.53 1508.75 *L 0 *D INVX3

*CAP
1 *987:A1 3.71057e-05
2 *863:Y 2.26407e-05
3 *360:2 0.000194836
4 *360:3 0.000198861
5 *360:5 6.23878e-05
6 *360:6 3.89924e-05
7 *360:7 4.99354e-05
8 *360:8 6.23878e-05
9 *360:9 0.00101053
10 *360:10 0.00824312
11 *360:11 4.30174e-05
12 *360:12 0.0072585
13 *360:13 1.7861e-05

*RES
1 *360:7 *987:A1 1.79516
2 *360:8 *360:7 8.75942
3 *360:5 *360:8 7.8939
4 *360:6 *360:5 8.75942
5 *360:6 *360:11 2.12374
6 *360:9 *360:11 1.02581
7 *360:10 *360:12 525.212524
8 *360:9 *360:10 72.3273
9 *360:12 *360:3 1.02581
10 *360:3 *360:2 13.4557
11 *360:13 *360:2 8.75942
12 *360:13 *863:Y 8.75942
13 *360:4 *360:13 1.01779
*END

*D_NET *361 0.0186255

*CONN
*I *864:Y O *C 1738.73 1508.75 *L 0 *D INVX3
*I *863:A I *C 1564.9 1508.125 *L 0.0012 *D INVX3

*CAP
1 *864:Y 2.26378e-05
2 *863:A 2.26378e-05
3 *361:4 1.78273e-05
4 *361:5 0.0092723
5 *361:6 1.78273e-05
6 *361:7 0.0092723

*RES
1 *361:3 *361:6 1.02328
2 *361:6 *864:Y 8.75888
3 *361:7 *361:6 8.75888
4 *361:5 *361:7 615.242981
5 *361:4 *863:A 8.75888
6 *361:4 *361:5 8.75888
7 *361:2 *361:4 1.02328
*END

*D_NET *362 0.0403955

*CONN
*I *994:B1 I *C 1781.78 1326.9301 *L 0.000212 *D AOI22XL
*I *992:B1 I *C 1782.1801 1138.83 *L 0.000212 *D AOI22XL
*I *990:B1 I *C 1782.1801 1200.39 *L 0.000212 *D AOI22XL
*I *989:B1 I *C 1782.1801 1267.33 *L 0.000212 *D AOI22XL
*I *988:B1 I *C 1781.58 1446.63 *L 0.000212 *D AOI22XL
*I *865:Y O *C 1779.715 1137.395 *L 0 *D CLKBUFX8
*I *864:A I *C 1738.1 1508.125 *L 0.0012 *D INVX3

*CAP
1 *994:B1 2.26869e-05
2 *992:B1 2.26869e-05
3 *990:B1 2.26869e-05
4 *989:B1 2.26869e-05
5 *988:B1 2.26869e-05
6 *865:Y 2.26869e-05
7 *864:A 2.26869e-05
8 *362:7 1.79239e-05
9 *362:8 1.79239e-05
10 *362:9 0.000110802
11 *362:10 3.76026e-05
12 *362:11 4.41204e-05
13 *362:12 4.41204e-05
14 *362:13 1.99294e-05
15 *362:14 1.99294e-05
16 *362:15 0.00317968
17 *362:16 0.00594021
18 *362:17 0.00277219
19 *362:18 3.53465e-05
20 *362:19 3.07088e-05
21 *362:20 7.40771e-05
22 *362:21 7.40771e-05
23 *362:22 2.68232e-05
24 *362:23 7.42025e-05
25 *362:24 0.00277796
26 *362:25 0.00273058
27 *362:26 8.47312e-05
28 *362:27 0.00821429
29 *362:28 0.00550452
30 *362:29 0.000204684
31 *362:30 0.000136623
32 *362:32 0.00216228
33 *362:33 0.000175855
34 *362:34 0.000175855
35 *362:35 0.00216228
36 *362:36 0.0027213
37 *362:37 6.37991e-05
38 *362:38 5.84094e-05
39 *362:39 1.79239e-05
40 *362:40 3.82293e-05
41 *362:41 7.93415e-05
42 *362:42 6.37991e-05
43 *362:43 7.49545e-05
44 *362:44 8.1723e-05
45 *362:45 8.1723e-05
46 *362:46 5.84094e-05
47 *362:47 4.8006e-05

*RES
1 *362:34 *864:A 8.76207
2 *362:8 *865:Y 8.76207
3 *362:33 *362:34 11.4318
4 *362:11 *992:B1 8.76207
5 *362:8 *362:7 0.670599
6 *362:32 *362:33 8.76207
7 *362:12 *362:11 2.19526
8 *362:30 *362:7 8.76207
9 *362:32 *362:35 131.064
10 *362:29 *362:12 8.76207
11 *362:30 *362:29 8.42677
12 *362:36 *362:35 8.76207
13 *362:29 *362:43 4.20706
14 *362:27 *988:B1 8.76207
15 *362:27 *362:36 204.824
16 *362:19 *362:43 8.76207
17 *362:28 *362:27 414.607269
18 *362:19 *362:18 1.3412
19 *362:10 *994:B1 8.76207
20 *362:28 *362:26 1.06916
21 *362:18 *362:44 1.06916
22 *362:10 *362:9 2.0118
23 *362:9 *362:26 5.36479
24 *362:13 *990:B1 8.76207
25 *362:44 *362:45 5.33949
26 *362:37 *362:9 8.76207
27 *362:14 *362:13 0.733863
28 *362:21 *362:45 1.06916
29 *362:37 *362:42 3.51115
30 *362:38 *362:14 8.76207
31 *362:21 *362:20 4.68787
32 *362:22 *362:42 8.76207
33 *362:38 *362:46 5.69376
34 *362:20 *362:17 1.06916
35 *362:23 *362:22 1.3412
36 *362:16 *362:46 8.76207
37 *362:17 *362:16 207.089
38 *362:24 *362:23 4.01727
39 *362:16 *362:15 239.461
40 *362:25 *362:24 204.982
41 *362:47 *362:15 8.76207
42 *362:41 *362:25 8.76207
43 *362:41 *362:47 2.8026
44 *362:40 *362:41 2.10669
45 *362:39 *989:B1 8.76207
46 *362:39 *362:40 8.76207
47 *362:31 *362:39 1.01222
*END

*D_NET *363 0.0237224

*CONN
*I *991:B1 I *C 1781.58 1080.6899 *L 0.000212 *D AOI22XL
*I *866:Y O *C 1600.15 1080.895 *L 0 *D INVX4
*I *865:A I *C 1780.3 1137.245 *L 0.000787 *D CLKBUFX8

*CAP
1 *991:B1 2.2619e-05
2 *866:Y 2.2619e-05
3 *865:A 2.2619e-05
4 *363:3 0.00232976
5 *363:4 0.00232976
6 *363:5 2.46629e-05
7 *363:6 2.00301e-05
8 *363:7 5.35499e-05
9 *363:8 5.81827e-05
10 *363:9 0.00892975
11 *363:10 0.00883273
12 *363:11 2.61618e-05
13 *363:12 2.61618e-05
14 *363:14 4.55106e-05
15 *363:15 1.79862e-05
16 *363:16 4.55106e-05
17 *363:17 0.00010383
18 *363:3 *202:2 0.00040545
19 *363:4 *202:3 0.000405449998

*RES
1 *363:6 *991:B1 8.76336
2 *363:6 *363:5 0.735929
3 *363:12 *866:Y 8.76336
4 *363:8 *363:5 1.07484
5 *363:12 *363:11 1.34597
6 *363:8 *363:7 3.31168
7 *363:10 *363:11 8.76336
8 *363:17 *363:7 8.76336
9 *363:10 *363:9 634.602905
10 *363:9 *363:17 5.62598
11 *363:4 *363:9 8.76336
12 *363:4 *363:3 197.21
13 *363:14 *363:3 8.76336
14 *363:14 *363:16 2.11095
15 *363:15 *865:A 8.76336
16 *363:15 *363:16 8.76336
17 *363:13 *363:15 1.01674
*END

*D_NET *364 0.0144472

*CONN
*I *867:Y O *C 1463.53 1081.25 *L 0 *D INVX3
*I *866:A I *C 1599.985 1080.775 *L 0.00161 *D INVX4

*CAP
1 *867:Y 2.26555e-05
2 *866:A 2.26555e-05
3 *364:2 0.00713812
4 *364:3 0.00713812
5 *364:4 2.60321e-05
6 *364:5 2.60321e-05
7 *364:6 3.68152e-05
8 *364:7 3.68152e-05

*RES
1 *364:6 *866:A 8.76276
2 *364:6 *364:7 3.22528
3 *364:2 *364:7 8.76276
4 *364:3 *364:2 482.584869
5 *364:5 *364:3 8.76276
6 *364:4 *364:5 1.34755
7 *867:Y *364:4 8.76276
*END

*D_NET *365 0.0218919

*CONN
*I *868:Y O *C 1327.35 990.105 *L 0 *D INVX4
*I *867:A I *C 1462.9 1080.625 *L 0.0012 *D INVX3

*CAP
1 *868:Y 0.000147555
2 *867:A 2.26391e-05
3 *365:2 0.00656484
4 *365:3 0.000160377
5 *365:4 8.50469e-05
6 *365:5 0.00410389
7 *365:6 8.50469e-05
8 *365:7 0.0024867
9 *365:8 0.00411791
10 *365:9 0.00411791

*RES
1 *365:9 *867:A 8.76116
2 *365:8 *365:9 314.098114
3 *365:7 *365:8 8.76116
4 *365:2 *365:7 149.707
5 *365:5 *365:2 247.57
6 *365:6 *365:5 8.76116
7 *365:4 *365:6 5.38227
8 *365:3 *365:4 8.76116
9 *868:Y *365:3 8.98642
*END

*D_NET *366 0.0222195

*CONN
*I *869:Y O *C 1327.35 764.385 *L 0 *D INVX4
*I *868:A I *C 1327.1851 990.225 *L 0.00161 *D INVX4

*CAP
1 *869:Y 2.26562e-05
2 *868:A 2.26562e-05
3 *366:2 0.01038305
4 *366:3 6.28988e-05
5 *366:4 1.74279e-05
6 *366:5 0.0102367
7 *366:6 0.000209927
8 *366:6 *22:3 6.49e-06
9 *366:2 *22:4 6.49e-06
10 *366:4 *22:3 4.84e-06
11 *366:3 *22:4 4.84e-06
12 *366:2 *22:4 0.00062081
13 *366:5 *22:5 0.000620809976

*RES
1 *366:5 *869:Y 8.76231
2 *366:4 *868:A 8.76231
3 *366:2 *366:6 11.0764
4 *366:5 *366:2 789.885071
5 *366:3 *366:4 0.903952
6 *366:3 *366:6 4.31486
*END

*D_NET *367 0.022002

*CONN
*I *993:A1 I *C 1326.6 583.52 *L 0.000212 *D AOI22XL
*I *870:Y O *C 1284.35 579.705 *L 0 *D INVX4
*I *869:A I *C 1327.1851 764.505 *L 0.00161 *D INVX4

*CAP
1 *993:A1 8.59187e-05
2 *870:Y 2.26358e-05
3 *869:A 2.26358e-05
4 *367:3 0.000210294
5 *367:4 0.000210294
6 *367:5 0.00202091
7 *367:6 8.20244e-05
8 *367:7 2.6165e-05
9 *367:8 2.6165e-05
10 *367:9 0.00202091
11 *367:10 3.82131e-05
12 *367:11 7.0098e-05
13 *367:12 8.01989e-05
14 *367:13 4.81924e-05
15 *367:14 0.00797547
16 *367:15 0.00797547
17 *367:15 *22:6 0.00034478
18 *367:14 *22:7 0.00034478
19 *367:15 *22:8 0.00017966
20 *367:14 *22:9 0.00017966
21 *367:11 *22:8 1.027e-05
22 *367:10 *22:9 1.027e-05
23 *367:13 *22:10 7.52e-06
24 *367:12 *22:11 7.52e-06
25 *367:8 *22:8 1.06e-06
26 *367:7 *22:9 1.05998255e-06

*RES
1 *367:13 *869:A 8.75616
2 *367:12 *367:13 3.53558
3 *367:12 *367:15 3.24338
4 *367:14 *367:15 638.313049
5 *367:11 *367:14 3.24338
6 *367:10 *367:11 2.20121
7 *993:A1 *367:10 8.75616
8 *367:6 *993:A1 3.59402
9 *367:7 *367:6 8.75616
10 *367:7 *367:8 1.35384
11 *367:9 *367:8 8.75616
12 *367:5 *367:9 145.738
13 *367:4 *367:5 8.75616
14 *367:3 *367:4 14.1228
15 *870:Y *367:3 8.75616
*END

*D_NET *368 0.0217125

*CONN
*I *871:Y O *C 1069.15 579.705 *L 0 *D INVX4
*I *870:A I *C 1284.1851 579.825 *L 0.00161 *D INVX4

*CAP
1 *871:Y 0.000227706
2 *870:A 9.83242e-06
3 *368:4 0.00024066
4 *368:5 1.79481e-05
5 *368:6 0.01022806
6 *368:7 0.000369262
7 *368:8 1.79481e-05
8 *368:9 0.01022806
9 *368:10 0.000359742
10 *368:11 1.3266e-05

*RES
1 *368:11 *870:A 0.601296
2 *368:10 *368:11 0.306114
3 *368:7 *368:10 21.5701
4 *368:8 *368:7 8.75705
5 *368:3 *368:8 1.01674
6 *368:9 *368:8 8.75705
7 *368:6 *368:9 716.482117
8 *871:Y *368:4 13.7861
9 *368:5 *368:6 8.75705
10 *368:5 *368:4 8.75705
11 *368:2 *368:5 1.01674
*END

*D_NET *369 0.0210269

*CONN
*I *872:Y O *C 853.95 579.705 *L 0 *D INVX4
*I *871:A I *C 1068.985 579.825 *L 0.00161 *D INVX4

*CAP
1 *872:Y 5.93647e-05
2 *871:A 9.89412e-06
3 *369:2 0.01029224
4 *369:5 7.22428e-05
5 *369:6 1.79036e-05
6 *369:7 0.0055451
7 *369:8 0.000121713
8 *369:9 1.79036e-05
9 *369:10 0.00476504
10 *369:11 0.00011229
11 *369:12 1.31922e-05

*RES
1 *369:12 *871:A 0.600217
2 *369:11 *369:12 0.306233
3 *369:8 *369:11 6.59013
4 *369:9 *369:8 8.75826
5 *369:4 *369:9 1.02282
6 *369:10 *369:9 8.75826
7 *369:2 *369:10 344.831
8 *369:7 *369:2 401.385742
9 *872:Y *369:5 3.59518
10 *369:6 *369:7 8.75826
11 *369:6 *369:5 8.75826
12 *369:3 *369:6 1.02282
*END

*D_NET *370 0.0210598

*CONN
*I *873:Y O *C 638.75 579.705 *L 0 *D INVX4
*I *872:A I *C 853.785 579.825 *L 0.00161 *D INVX4

*CAP
1 *873:Y 0.000307015
2 *872:A 9.97194e-06
3 *370:4 0.000319857
4 *370:5 1.78286e-05
5 *370:6 0.00990168
6 *370:7 0.000290093
7 *370:8 1.78286e-05
8 *370:9 0.00990168
9 *370:10 0.000280574
10 *370:11 1.32959e-05

*RES
1 *370:11 *872:A 0.601296
2 *370:10 *370:11 0.306114
3 *370:7 *370:10 16.7816
4 *370:8 *370:7 8.75705
5 *370:3 *370:8 1.01674
6 *370:9 *370:8 8.75705
7 *370:6 *370:9 716.482117
8 *873:Y *370:4 18.5746
9 *370:5 *370:6 8.75705
10 *370:5 *370:4 8.75705
11 *370:2 *370:5 1.01674
*END

*D_NET *371 0.0168629

*CONN
*I *874:Y O *C 466.53 579.35 *L 0 *D INVX3
*I *873:A I *C 638.585 579.825 *L 0.00161 *D INVX4

*CAP
1 *874:Y 2.26632e-05
2 *873:A 9.92282e-06
3 *371:4 1.78856e-05
4 *371:5 0.00031165
5 *371:6 0.000315693
6 *371:7 0.00251978
7 *371:8 0.0080283
8 *371:9 4.25089e-05
9 *371:10 1.78856e-05
10 *371:11 0.00553032
11 *371:12 3.30761e-05
12 *371:13 1.32304e-05

*RES
1 *371:13 *873:A 0.598459
2 *371:12 *371:13 0.305336
3 *371:9 *371:12 1.79538
4 *371:10 *371:9 8.76315
5 *371:3 *371:10 1.01982
6 *371:11 *371:10 8.76315
7 *371:8 *371:11 400.21048
8 *371:7 *371:8 181.755
9 *371:6 *371:7 1.02593
10 *371:5 *371:6 21.9476
11 *371:4 *371:5 8.76315
12 *371:4 *874:Y 8.76315
13 *371:2 *371:4 1.01982
*END

*D_NET *372 0.0168901

*CONN
*I *875:Y O *C 294.33 579.35 *L 0 *D INVX3
*I *874:A I *C 465.9 579.975 *L 0.0012 *D INVX3

*CAP
1 *875:Y 2.27179e-05
2 *874:A 9.84037e-05
3 *372:3 1.78585e-05
4 *372:4 0.00034089
5 *372:5 0.000344899
6 *372:6 0.00796159
7 *372:7 1.7494e-05
8 *372:8 0.00795758
9 *372:9 0.00011116
10 *372:10 1.7494e-05

*RES
1 *372:9 *874:A 5.98848
2 *372:10 *372:9 8.75848
3 *372:7 *372:10 0.668318
4 *372:8 *372:7 8.75848
5 *372:6 *372:8 576.300842
6 *372:5 *372:6 1.02886
7 *372:4 *372:5 24.0682
8 *372:3 *372:4 8.75848
9 *372:3 *875:Y 8.75848
10 *372:2 *372:3 1.02006
*END

*D_NET *373 0.0314519

*CONN
*I *1003:B I *C 274.775 1773.135 *L 0.000392 *D NOR2X1
*I *876:Y O *C 252.165 1460.105 *L 0 *D CLKINVX6

*CAP
1 *1003:B 2.26706e-05
2 *876:Y 2.26706e-05
3 *373:2 0.012381
4 *373:3 0.0102721
5 *373:4 0.00118378
6 *373:5 0.00213142
7 *373:6 0.000279038
8 *373:7 0.000283761
9 *373:8 0.000519158
10 *373:9 0.000514623
11 *373:10 0.00118378
12 *373:11 0.00132661
13 *373:12 0.00133133

*RES
1 *373:9 *1003:B 8.75916
2 *373:8 *373:9 42.1564
3 *373:8 *373:12 1.07695
4 *373:11 *373:12 99.1747
5 *373:10 *373:11 8.75916
6 *373:4 *373:10 70.0852
7 *373:6 *876:Y 8.75916
8 *373:5 *373:4 8.75916
9 *373:6 *373:7 19.4449
10 *373:2 *373:5 161.195
11 *373:3 *373:2 784.208008
12 *373:3 *373:7 1.07695
*END

*D_NET *374 0.0286833

*CONN
*I *877:Y O *C 251.165 1151.255 *L 0 *D CLKINVX6
*I *876:A I *C 251.3 1460.245 *L 0.00241 *D CLKINVX6

*CAP
1 *877:Y 2.26165e-05
2 *876:A 1.98428e-05
3 *374:2 0.00030767
4 *374:3 0.000312364
5 *374:4 0.0102722
6 *374:5 0.01398276
7 *374:6 3.26446e-05
8 *374:7 0.00373322

*RES
1 *374:6 *876:A 1.20851
2 *374:7 *374:6 8.75868
3 *374:5 *374:7 283.879
4 *374:4 *374:5 784.165283
5 *374:3 *374:4 1.07689
6 *374:2 *374:3 21.454
7 *877:Y *374:2 8.75868
*END

*D_NET *375 0.0206307

*CONN
*I *878:Y O *C 250.95 928.545 *L 0 *D INVX4
*I *877:A I *C 250.3 1151.115 *L 0.00241 *D CLKINVX6

*CAP
1 *878:Y 2.26653e-05
2 *877:A 2.26653e-05
3 *375:2 0.000323855
4 *375:3 0.000328418
5 *375:4 0.00996892
6 *375:5 0.0099642

*RES
1 *375:5 *877:A 8.75502
2 *375:4 *375:5 760.966553
3 *375:3 *375:4 1.07986
4 *375:2 *375:3 22.7932
5 *878:Y *375:2 8.75502
*END

*D_NET *376 0.0167058

*CONN
*I *879:Y O *C 250.73 752.93 *L 0 *D INVX3
*I *878:A I *C 250.785 928.665 *L 0.00161 *D INVX4

*CAP
1 *879:Y 2.26729e-05
2 *878:A 2.26729e-05
3 *376:2 0.000295976
4 *376:3 0.000264084
5 *376:4 7.80575e-05
6 *376:5 7.80575e-05
7 *376:6 0.00447086
8 *376:7 0.0044755
9 *376:8 0.0031294
10 *376:9 0.00315665
11 *376:7 *408:17 1.124e-05
12 *376:6 *408:18 1.124e-05
13 *376:7 *408:19 0.00034474
14 *376:6 *408:20 0.000344740005

*RES
1 *376:6 *879:Y 8.76029
2 *376:6 *376:7 362.674774
3 *376:4 *376:7 1.07359
4 *376:4 *376:5 4.70941
5 *376:5 *376:8 1.07359
6 *376:3 *878:A 8.76029
7 *376:8 *376:9 237.325
8 *376:2 *376:3 18.2621
9 *376:2 *376:9 3.22631
*END

*D_NET *377 0.0110824

*CONN
*I *996:A0 I *C 1134.36 330.29 *L 0.000211 *D AOI21XL
*I *880:Y O *C 1201.73 290.74 *L 0 *D INVX2

*CAP
1 *996:A0 2.26537e-05
2 *880:Y 3.02049e-05
3 *377:2 0.000120299
4 *377:3 0.000115612
5 *377:4 0.00341289
6 *377:5 0.00158586
7 *377:6 0.00159055
8 *377:7 3.2965e-05
9 *377:8 0.000158784
10 *377:9 0.00341289
11 *377:10 0.000158784
12 *377:11 0.000181281
13 *377:12 3.41628e-05
14 *377:13 0.000181281
15 *377:14 4.42137e-05

*RES
1 *377:14 *880:Y 1.79725
2 *377:13 *377:14 1.28908
3 *377:11 *377:13 10.1863
4 *377:11 *377:12 1.28908
5 *377:7 *377:12 1.19721
6 *377:8 *377:7 8.75942
7 *377:8 *377:10 10.0887
8 *377:9 *377:10 8.75942
9 *377:4 *377:9 188.153854
10 *377:5 *377:4 8.75942
11 *377:3 *996:A0 8.75942
12 *377:5 *377:6 119.721
13 *377:2 *377:3 8.07038
14 *377:2 *377:6 1.0795
*END

*D_NET *378 0.0068814

*CONN
*I *1014:B I *C 1324.165 249.635 *L 0.000392 *D NOR2BX1
*I *1013:B I *C 1260.965 251.585 *L 0.000392 *D NOR2BX1
*I *881:Y O *C 1260.13 251.52 *L 0 *D INVX2

*CAP
1 *1014:B 2.26743e-05
2 *1013:B 2.26743e-05
3 *881:Y 2.26743e-05
4 *378:3 2.00596e-05
5 *378:4 2.00596e-05
6 *378:5 2.83122e-05
7 *378:6 2.83122e-05
8 *378:7 0.0026734
9 *378:8 0.0026774
10 *378:9 8.2281e-05
11 *378:10 6.52038e-05
12 *378:11 0.000229929
13 *378:12 9.26172e-05
14 *378:13 0.000165256
15 *378:14 0.00012146
16 *378:15 4.31832e-05
17 *378:16 0.00012146
18 *378:17 4.31832e-05
19 *378:18 4.62473e-05
20 *378:19 4.62473e-05
21 *378:7 *344:9 0.00015438
22 *378:8 *344:7 0.000154379997

*RES
1 *378:18 *1014:B 8.76079
2 *378:18 *378:19 4.60915
3 *378:7 *378:19 8.76079
4 *378:8 *378:7 202.592545
5 *378:8 *378:17 1.02323
6 *378:15 *378:17 2.12373
7 *378:15 *378:16 1.02323
8 *378:14 *378:16 7.81176
9 *378:13 *378:14 1.02323
10 *378:6 *1013:B 8.76079
11 *378:11 *378:13 9.91694
12 *378:6 *378:5 1.40964
13 *378:11 *378:12 6.13317
14 *378:9 *378:5 8.76079
15 *378:9 *378:12 1.57657
16 *378:10 *378:9 3.53956
17 *378:3 *378:10 8.76079
18 *378:4 *378:3 0.735733
19 *881:Y *378:4 8.76079
*END

*D_NET *379 0.00962748

*CONN
*I *882:Y O *C 1202.73 251.52 *L 0 *D INVX2
*I *881:A I *C 1259.7 251.655 *L 0.000801 *D INVX2
*I *880:A I *C 1201.3 290.605 *L 0.000801 *D INVX2

*CAP
1 *882:Y 2.26937e-05
2 *881:A 2.26937e-05
3 *880:A 2.26937e-05
4 *379:3 0.000195045
5 *379:4 0.000198982
6 *379:5 0.00263227
7 *379:6 0.00262825
8 *379:7 3.43017e-05
9 *379:8 3.43017e-05
10 *379:9 0.000650004
11 *379:10 0.000577264
12 *379:11 2.59472e-05
13 *379:12 0.00126466
14 *379:13 0.00131836

*RES
1 *379:8 *881:A 8.76209
2 *379:8 *379:7 3.16601
3 *379:3 *379:7 8.76209
4 *379:4 *379:3 13.4404
5 *379:5 *379:4 1.02167
6 *379:6 *379:5 189.141052
7 *379:11 *882:Y 8.76209
8 *379:12 *379:6 8.76209
9 *379:11 *379:12 1.33913
10 *379:10 *880:A 8.76209
11 *379:12 *379:13 92.8764
12 *379:9 *379:10 42.3732
13 *379:9 *379:13 6.47921
*END

*D_NET *380 0.0321099

*CONN
*I *1007:B I *C 270.175 1771.885 *L 0.000392 *D NOR2X1
*I *883:Y O *C 271.965 1424.855 *L 0 *D CLKINVX6

*CAP
1 *1007:B 2.27069e-05
2 *883:Y 2.27069e-05
3 *380:2 1.75795e-05
4 *380:3 2.22186e-05
5 *380:4 0.01600104
6 *380:5 0.0102684
7 *380:6 0.0057551

*RES
1 *380:5 *883:Y 8.76237
2 *380:2 *1007:B 8.76237
3 *380:4 *380:6 438.274
4 *380:5 *380:4 784.495789
5 *380:3 *380:2 0.670346
6 *380:3 *380:6 1.07734
*END

*D_NET *381 0.00812139

*CONN
*I *884:Y O *C 271.33 1337.26 *L 0 *D INVX2
*I *883:A I *C 271.1 1424.715 *L 0.00241 *D CLKINVX6

*CAP
1 *884:Y 2.26748e-05
2 *883:A 2.26748e-05
3 *381:2 0.00403802
4 *381:3 0.00403802

*RES
1 *381:3 *883:A 8.76165
2 *381:2 *381:3 307.060669
3 *884:Y *381:2 8.76165
*END

*D_NET *382 0.0162804

*CONN
*I *885:Y O *C 271.33 1160.75 *L 0 *D INVX3
*I *884:A I *C 270.9 1337.125 *L 0.000801 *D INVX2

*CAP
1 *885:Y 2.26674e-05
2 *884:A 2.26674e-05
3 *382:2 0.00811754
4 *382:3 0.00811754

*RES
1 *382:3 *884:A 8.76291
2 *382:2 *382:3 619.510437
3 *885:Y *382:2 8.76291
*END

*D_NET *383 0.0164044

*CONN
*I *886:Y O *C 270.53 985.49 *L 0 *D INVX3
*I *885:A I *C 270.7 1161.375 *L 0.0012 *D INVX3

*CAP
1 *886:Y 2.26716e-05
2 *885:A 1.96407e-05
3 *383:2 0.00794538
4 *383:3 3.2492e-05
5 *383:4 0.00794065
6 *383:5 0.000219442
7 *383:6 0.00022417

*RES
1 *383:3 *885:A 1.21148
2 *383:5 *886:Y 8.75782
3 *383:4 *383:3 8.75782
4 *383:5 *383:6 14.7505
5 *383:2 *383:4 606.07428
6 *383:2 *383:6 1.07276
*END

*D_NET *384 0.0202951

*CONN
*I *887:Y O *C 269.95 766.255 *L 0 *D INVX4
*I *886:A I *C 269.9 984.865 *L 0.0012 *D INVX3

*CAP
1 *887:Y 2.27446e-05
2 *886:A 2.27446e-05
3 *384:2 0.0098713
4 *384:3 0.00986663
5 *384:4 0.000258174
6 *384:5 0.000253504

*RES
1 *384:5 *886:A 8.76613
2 *384:4 *384:5 17.4289
3 *384:2 *384:4 1.07997
4 *384:3 *384:2 752.944885
5 *887:Y *384:3 8.76613
*END

*D_NET *385 0.0304137

*CONN
*I *888:Y O *C 253.965 461.465 *L 0 *D CLKINVX6
*I *887:A I *C 269.785 766.135 *L 0.00161 *D INVX4

*CAP
1 *888:Y 2.26749e-05
2 *887:A 2.26749e-05
3 *385:2 0.0052314
4 *385:3 0.00521305
5 *385:4 0.000286366
6 *385:5 0.000304709
7 *385:6 0.0083483
8 *385:7 0.000876677
9 *385:8 0.00834359
10 *385:9 4.10186e-05
11 *385:10 4.57319e-05
12 *385:11 0.000876677
13 *385:8 *386:5 0.00020265
14 *385:6 *386:3 0.00020265
15 *385:10 *386:3 2.28e-06
16 *385:9 *386:4 2.28e-06
17 *385:8 *386:3 0.00019555
18 *385:6 *386:4 0.000195549994

*RES
1 *385:4 *887:A 8.75739
2 *385:5 *385:4 19.8609
3 *385:5 *385:2 2.15395
4 *385:3 *385:2 391.807
5 *385:11 *385:3 8.75739
6 *385:7 *385:11 48.3376
7 *385:9 *888:Y 8.75739
8 *385:8 *385:7 8.75739
9 *385:9 *385:10 2.68991
10 *385:6 *385:8 662.730164
11 *385:6 *385:10 1.07192
*END

*D_NET *386 0.0244509

*CONN
*I *1005:B I *C 250.9 579.785 *L 0.000211 *D AND2X1
*I *1000:A1 I *C 250.99 520.19 *L 0.000212 *D OA21X1
*I *889:Y O *C 251.75 336.885 *L 0 *D INVX4

*CAP
1 *1005:B 2.27737e-05
2 *1000:A1 2.27737e-05
3 *889:Y 5.97372e-05
4 *386:3 0.01148058
5 *386:4 0.00884601
6 *386:5 0.00264158
7 *386:8 1.80438e-05
8 *386:9 0.000120876
9 *386:10 1.80438e-05
10 *386:11 0.000113168
11 *386:12 7.27007e-05
12 *386:13 0.000120876
13 *386:14 0.000113168
14 *386:5 *385:8 0.00020265
15 *386:3 *385:6 0.00020265
16 *386:3 *385:10 2.28e-06
17 *386:4 *385:9 2.28e-06
18 *386:3 *385:8 0.00019555
19 *386:4 *385:6 0.000195549994

*RES
1 *386:10 *1005:B 8.75986
2 *386:7 *386:10 1.01721
3 *386:11 *386:10 8.75986
4 *889:Y *386:12 3.62443
5 *386:11 *386:14 7.05134
6 *386:4 *386:12 8.75986
7 *386:5 *386:14 8.75986
8 *386:4 *386:3 647.221985
9 *386:3 *386:5 212.261
10 *386:13 *386:3 8.75986
11 *386:9 *386:13 7.05134
12 *386:8 *1000:A1 8.75986
13 *386:8 *386:9 8.75986
14 *386:6 *386:8 1.01721
*END

*D_NET *387 0.021395

*CONN
*I *890:Y O *C 383.75 249.835 *L 0 *D INVX4
*I *889:A I *C 251.585 337.005 *L 0.00161 *D INVX4

*CAP
1 *890:Y 2.26461e-05
2 *889:A 2.26461e-05
3 *387:2 5.02023e-05
4 *387:3 4.55929e-05
5 *387:4 0.000166539
6 *387:5 0.000166539
7 *387:6 1.61329e-05
8 *387:7 1.14233e-05
9 *387:8 0.00656688
10 *387:9 0.0038797
11 *387:10 0.00656688
12 *387:11 0.0038797

*RES
1 *387:9 *890:Y 8.7596
2 *387:9 *387:11 294.187
3 *387:10 *387:11 8.7596
4 *387:8 *387:10 396.183044
5 *387:3 *387:8 8.7596
6 *387:3 *387:2 2.69015
7 *387:5 *387:2 1.07606
8 *387:7 *889:A 8.7596
9 *387:5 *387:4 9.70871
10 *387:6 *387:7 0.175313
11 *387:6 *387:4 1.07606
*END

*D_NET *388 0.0217718

*CONN
*I *891:Y O *C 604.95 249.835 *L 0 *D INVX4
*I *890:A I *C 383.585 249.715 *L 0.00161 *D INVX4

*CAP
1 *891:Y 2.26022e-05
2 *890:A 2.26022e-05
3 *388:3 1.12186e-05
4 *388:4 1.12186e-05
5 *388:5 0.00690028
6 *388:6 0.01081195
7 *388:7 3.11812e-05
8 *388:8 0.00392965
9 *388:9 3.11812e-05

*RES
1 *388:9 *891:Y 8.75975
2 *388:7 *388:9 1.45602
3 *388:8 *388:7 8.75975
4 *388:6 *388:8 293.29
5 *388:5 *388:6 515.794373
6 *388:4 *388:5 8.75975
7 *388:3 *890:A 8.75975
8 *388:3 *388:4 0.181019
9 *388:2 *388:3 0.78704
*END

*D_NET *389 0.0218948

*CONN
*I *892:Y O *C 826.35 249.835 *L 0 *D INVX4
*I *891:A I *C 604.785 249.715 *L 0.00161 *D INVX4

*CAP
1 *892:Y 2.26793e-05
2 *891:A 2.26793e-05
3 *389:2 0.000233549
4 *389:3 0.000229527
5 *389:4 3.20084e-05
6 *389:5 3.20084e-05
7 *389:7 0.01054105
8 *389:8 0.01054105
9 *389:9 0.000113236
10 *389:10 1.78539e-05
11 *389:11 0.000109375

*RES
1 *389:5 *891:A 8.76416
2 *389:5 *389:4 1.67108
3 *389:3 *389:4 8.76416
4 *389:3 *389:2 15.5206
5 *389:7 *389:2 1.02188
6 *389:7 *389:8 787.885193
7 *389:8 *389:9 1.02188
8 *389:9 *389:11 7.06904
9 *389:10 *389:11 8.76416
10 *389:10 *892:Y 8.76416
11 *389:6 *389:10 1.05795
*END

*D_NET *390 0.0218728

*CONN
*I *893:Y O *C 1047.55 249.835 *L 0 *D INVX4
*I *892:A I *C 826.185 249.715 *L 0.00161 *D INVX4

*CAP
1 *893:Y 2.27065e-05
2 *892:A 2.27065e-05
3 *390:2 0.01086185
4 *390:3 0.0070329
5 *390:4 1.17676e-05
6 *390:5 1.17676e-05
7 *390:7 3.09936e-05
8 *390:8 0.00384702
9 *390:9 3.09936e-05

*RES
1 *390:9 *893:Y 8.75741
2 *390:7 *390:9 1.45957
3 *390:8 *390:7 8.75741
4 *390:2 *390:8 287.214
5 *390:3 *390:2 525.573181
6 *390:4 *390:3 8.75741
7 *390:5 *892:A 8.75741
8 *390:5 *390:4 0.20049
9 *390:6 *390:5 0.785922
*END

*D_NET *391 0.0219127

*CONN
*I *894:Y O *C 1264.75 249.835 *L 0 *D INVX4
*I *893:A I *C 1047.385 249.715 *L 0.00161 *D INVX4

*CAP
1 *894:Y 2.25905e-05
2 *893:A 2.25905e-05
3 *391:2 0.0105707
4 *391:3 0.01057477
5 *391:4 0.000311587
6 *391:5 0.000307553
7 *391:6 3.19494e-05
8 *391:7 3.19494e-05
9 *391:8 1.93633e-05
10 *391:9 1.93633e-05

*RES
1 *391:9 *894:Y 8.75915
2 *391:8 *391:9 0.672872
3 *391:2 *391:8 8.75915
4 *391:3 *391:2 773.637939
5 *391:3 *391:4 1.01521
6 *391:5 *391:4 21.166
7 *391:6 *391:5 8.75915
8 *391:7 *391:6 1.67628
9 *893:A *391:7 8.75915
*END

*D_NET *392 0.0334095

*CONN
*I *1009:B I *C 249.7 458.375 *L 0.000211 *D AND2X1
*I *1006:A1 I *C 253.19 393.65 *L 0.000212 *D OA21X1
*I *895:Y O *C 514.765 393.065 *L 0 *D CLKINVX6

*CAP
1 *1009:B 2.27508e-05
2 *1006:A1 3.27292e-05
3 *895:Y 2.27508e-05
4 *392:3 0.00310648
5 *392:4 0.00310648
6 *392:5 2.69417e-05
7 *392:6 2.69417e-05
8 *392:7 0.000187594
9 *392:8 0.01307871
10 *392:9 0.0111682
11 *392:10 0.000164843
12 *392:11 2.59439e-05
13 *392:12 2.59439e-05
14 *392:13 0.00192843
15 *392:8 *302:6 2.86e-06
16 *392:9 *302:4 2.86e-06
17 *392:8 *302:10 0.00023943
18 *392:9 *302:5 0.000239430005

*RES
1 *392:11 *895:Y 8.76193
2 *392:11 *392:12 1.34984
3 *392:13 *392:12 8.76193
4 *392:8 *392:13 139.263
5 *392:9 *392:8 789.851257
6 *392:5 *392:9 8.76193
7 *392:3 *1009:B 8.76193
8 *392:6 *392:5 1.34984
9 *392:4 *392:3 239.187
10 *392:7 *1006:A1 1.78372
11 *392:7 *392:6 8.76193
12 *392:10 *392:4 8.76193
13 *392:10 *392:7 8.316
*END

*D_NET *393 0.0235706

*CONN
*I *896:Y O *C 734.55 393.475 *L 0 *D INVX4
*I *895:A I *C 513.9 393.205 *L 0.00241 *D CLKINVX6

*CAP
1 *896:Y 2.26068e-05
2 *895:A 2.26068e-05
3 *393:4 1.7918e-05
4 *393:5 0.000458165
5 *393:6 0.000462184
6 *393:7 4.92327e-05
7 *393:8 0.01097436
8 *393:9 0.000299415
9 *393:10 0.0109509
10 *393:11 1.7918e-05
11 *393:12 0.000295396

*RES
1 *393:3 *393:11 1.01701
2 *393:11 *896:Y 8.76622
3 *393:12 *393:11 8.76622
4 *393:9 *393:12 20.6277
5 *393:9 *393:10 1.02807
6 *393:8 *393:10 724.46814
7 *393:7 *393:8 2.63097
8 *393:6 *393:7 1.02807
9 *393:5 *393:6 32.5666
10 *393:4 *895:A 8.76622
11 *393:4 *393:5 8.76622
12 *393:2 *393:4 1.01701
*END

*D_NET *394 0.0221586

*CONN
*I *897:Y O *C 954.35 393.475 *L 0 *D INVX4
*I *896:A I *C 734.385 393.355 *L 0.00161 *D INVX4

*CAP
1 *897:Y 2.27201e-05
2 *896:A 2.27201e-05
3 *394:2 4.33153e-05
4 *394:3 3.93924e-05
5 *394:4 0.01071196
6 *394:5 0.010699
7 *394:7 1.97779e-05
8 *394:8 1.97779e-05
9 *394:9 0.000289477
10 *394:10 1.78165e-05
11 *394:11 0.000272478

*RES
1 *394:7 *896:A 8.76297
2 *394:7 *394:8 0.843927
3 *394:3 *394:8 8.76297
4 *394:3 *394:2 2.12716
5 *394:5 *394:2 1.0289
6 *394:5 *394:4 757.638306
7 *394:4 *394:9 2.04623
8 *394:9 *394:11 19.1213
9 *394:10 *394:11 8.76297
10 *394:10 *897:Y 8.76297
11 *394:6 *394:10 1.01734
*END

*D_NET *395 0.0216717

*CONN
*I *898:Y O *C 1174.35 393.475 *L 0 *D INVX4
*I *897:A I *C 954.185 393.355 *L 0.00161 *D INVX4

*CAP
1 *898:Y 2.26443e-05
2 *897:A 2.26443e-05
3 *395:2 1.11581e-05
4 *395:3 1.59166e-05
5 *395:4 2.24802e-05
6 *395:5 0.000731017
7 *395:6 0.01075358
8 *395:7 2.59261e-05
9 *395:8 0.0100404
10 *395:9 2.59261e-05

*RES
1 *395:9 *898:Y 8.75679
2 *395:7 *395:9 1.34123
3 *395:8 *395:7 8.75679
4 *395:6 *395:8 726.436401
5 *395:5 *395:6 52.3523
6 *395:4 *395:5 8.75679
7 *395:3 *395:4 1.0752
8 *395:2 *395:3 0.177353
9 *897:A *395:2 8.75679
*END

*D_NET *396 0.0224327

*CONN
*I *1008:B0 I *C 1262.3 248.045 *L 0.000212 *D AOI21XL
*I *899:Y O *C 1262.36 250.95 *L 0 *D BUFX4
*I *898:A I *C 1174.1851 393.355 *L 0.00161 *D INVX4

*CAP
1 *1008:B0 2.26981e-05
2 *899:Y 2.26981e-05
3 *898:A 2.26981e-05
4 *396:3 0.000195223
5 *396:4 0.000295356
6 *396:5 0.000107139
7 *396:6 0.000380357
8 *396:7 0.000362143
9 *396:8 0.00439989
10 *396:9 0.00610318
11 *396:10 0.00612149
12 *396:11 0.00439989

*RES
1 *396:5 *1008:B0 8.76421
2 *396:5 *396:4 12.7216
3 *396:4 *899:Y 8.76421
4 *396:4 *396:3 12.7853
5 *396:11 *396:3 8.76421
6 *396:8 *396:11 267.039
7 *396:9 *396:8 8.76421
8 *396:7 *898:A 8.76421
9 *396:9 *396:10 463.951019
10 *396:6 *396:7 25.8962
11 *396:6 *396:10 2.1592
*END

*D_NET *397 0.0312741

*CONN
*I *997:B1 I *C 1326.38 646.35 *L 0.000212 *D AOI22XL
*I *993:B1 I *C 1326.98 583.33 *L 0.000212 *D AOI22XL
*I *976:B1 I *C 1136.38 701.07 *L 0.000212 *D AOI22XL
*I *900:Y O *C 1136.765 646.145 *L 0 *D CLKINVX6

*CAP
1 *997:B1 2.26779e-05
2 *993:B1 2.26779e-05
3 *976:B1 2.26779e-05
4 *900:Y 3.04826e-05
5 *397:4 0.00250267
6 *397:5 0.00256187
7 *397:6 0.00965062
8 *397:7 0.00965062
9 *397:9 1.78183e-05
10 *397:10 5.02153e-05
11 *397:11 4.32942e-05
12 *397:12 4.34414e-05
13 *397:13 0.00256687
14 *397:14 0.00253035
15 *397:15 5.02153e-05
16 *397:16 0.000102345
17 *397:17 7.03898e-05
18 *397:18 0.000411147
19 *397:19 0.000411147
20 *397:20 2.66539e-05
21 *397:21 0.000116482
22 *397:22 3.13662e-05
23 *397:23 2.68011e-05
24 *397:24 8.11397e-05
25 *397:25 3.62257e-05
26 *397:26 7.70165e-05
27 *397:27 0.000116482

*RES
1 *397:26 *993:B1 8.75729
2 *397:26 *397:5 5.39931
3 *397:5 *397:4 189.098
4 *397:27 *397:4 8.75729
5 *397:21 *397:27 7.0834
6 *397:20 *397:21 8.75729
7 *397:20 *397:22 1.34727
8 *397:18 *397:22 1.0819
9 *397:18 *397:19 29.0379
10 *397:19 *397:23 1.0819
11 *397:25 *997:B1 8.75729
12 *397:23 *397:24 1.50037
13 *397:24 *397:25 2.16381
14 *397:16 *397:24 3.2355
15 *397:16 *397:17 4.03162
16 *397:6 *397:17 8.75729
17 *900:Y *397:11 1.79637
18 *397:7 *397:6 668.90155
19 *397:12 *397:11 8.75729
20 *397:13 *397:7 8.75729
21 *397:12 *397:13 2.70476
22 *397:13 *397:14 190.445
23 *397:15 *397:14 8.75729
24 *397:10 *397:15 2.82724
25 *397:9 *976:B1 8.75729
26 *397:9 *397:10 8.75729
27 *397:8 *397:9 1.02066
*END

*D_NET *398 0.0301535

*CONN
*I *901:Y O *C 1134.765 333.875 *L 0 *D CLKINVX6
*I *900:A I *C 1135.9 646.285 *L 0.00241 *D CLKINVX6

*CAP
1 *901:Y 2.25556e-05
2 *900:A 8.01729e-05
3 *398:2 0.000329848
4 *398:3 0.000334538
5 *398:4 0.0107499
6 *398:5 0.01463546
7 *398:6 9.29023e-05
8 *398:7 0.00390837

*RES
1 *398:6 *900:A 4.19246
2 *398:7 *398:6 8.75732
3 *398:5 *398:7 295.539
4 *398:4 *398:5 787.269897
5 *398:3 *398:4 1.08115
6 *398:2 *398:3 23.1366
7 *901:Y *398:2 8.75732
*END

*D_NET *399 0.018834

*CONN
*I *998:B1 I *C 951.38 333.67 *L 0.000212 *D AOI22XL
*I *902:Y O *C 950.93 332.27 *L 0 *D INVX3
*I *901:A I *C 1133.9 333.735 *L 0.00241 *D CLKINVX6

*CAP
1 *998:B1 2.26128e-05
2 *902:Y 2.26128e-05
3 *901:A 0.00025573
4 *399:3 6.9757e-05
5 *399:4 5.15297e-05
6 *399:5 0.00898138
7 *399:6 0.000857092
8 *399:7 3.46729e-05
9 *399:8 5.64634e-05
10 *399:9 0.00814224
11 *399:10 0.000268612
12 *399:11 3.56322e-05
13 *399:12 3.56322e-05

*RES
1 *399:10 *901:A 15.5804
2 *399:11 *399:10 8.75853
3 *399:11 *399:12 2.01516
4 *399:9 *399:12 8.75853
5 *399:5 *399:9 571.712463
6 *399:6 *399:5 61.2923
7 *399:7 *399:6 8.75853
8 *399:8 *998:B1 8.75853
9 *399:8 *399:7 2.02388
10 *399:3 *399:8 2.16346
11 *399:4 *399:3 6.48166
12 *902:Y *399:4 8.75853
*END

*D_NET *400 0.00390442

*CONN
*I *903:Y O *C 950.13 291.23 *L 0 *D INVX1
*I *902:A I *C 950.3 331.645 *L 0.0012 *D INVX3

*CAP
1 *903:Y 2.26597e-05
2 *902:A 2.26597e-05
3 *400:2 0.00174237
4 *400:3 0.00174706
5 *400:4 0.000187169
6 *400:5 0.000182504

*RES
1 *400:5 *902:A 8.76017
2 *400:4 *400:5 11.4335
3 *400:3 *400:4 1.08019
4 *400:2 *400:3 131.827042
5 *903:Y *400:2 8.76017
*END

*D_NET *401 0.0327901

*CONN
*I *978:B1 I *C 950.18 248.17 *L 0.000212 *D AOI22XL
*I *975:B1 I *C 765.98 337.09 *L 0.000212 *D AOI22XL
*I *971:B1 I *C 826.18 248.17 *L 0.000212 *D AOI22XL
*I *968:B1 I *C 893.58 248.17 *L 0.000212 *D AOI22XL
*I *904:Y O *C 764.965 337.295 *L 0 *D CLKINVX6
*I *903:A I *C 949.9 290.605 *L 0.000395 *D INVX1

*CAP
1 *978:B1 2.26576e-05
2 *975:B1 2.26576e-05
3 *971:B1 2.26576e-05
4 *968:B1 2.26576e-05
5 *904:Y 2.26576e-05
6 *903:A 2.26576e-05
7 *401:6 0.000303858
8 *401:7 0.000322203
9 *401:8 1.96457e-05
10 *401:9 1.96457e-05
11 *401:10 0.00278127
12 *401:11 0.0027853
13 *401:12 7.26274e-05
14 *401:13 5.46246e-05
15 *401:16 5.65412e-05
16 *401:17 0.00446771
17 *401:18 0.00321539
18 *401:19 0.00448599
19 *401:20 1.78659e-05
20 *401:21 5.65412e-05
21 *401:22 1.77975e-05
22 *401:23 1.77975e-05
23 *401:24 0.00323784
24 *401:25 3.3336e-05
25 *401:26 0.00161498
26 *401:27 0.00161498
27 *401:28 0.000101993
28 *401:29 0.00159636
29 *401:30 0.000101993
30 *401:31 0.00159636
31 *401:32 3.29253e-05
32 *401:33 0.00171082
33 *401:34 0.00170616
34 *401:35 3.06664e-05
35 *401:36 0.000300024
36 *401:37 0.000280858

*RES
1 *401:34 *903:A 8.75889
2 *401:33 *401:34 128.286
3 *401:35 *978:B1 8.75889
4 *401:33 *401:37 1.07542
5 *401:35 *401:36 1.39538
6 *401:36 *401:37 18.0333
7 *401:10 *401:36 8.75889
8 *401:9 *968:B1 8.75889
9 *401:11 *401:10 206.943
10 *401:9 *401:8 0.75546
11 *401:32 *401:11 1.05764
12 *401:12 *401:8 8.75889
13 *401:12 *401:32 1.47093
14 *401:13 *401:12 2.9463
15 *401:13 *401:31 1.05764
16 *401:29 *401:31 117.896
17 *401:29 *401:30 1.05764
18 *401:28 *401:30 6.62583
19 *401:27 *401:28 1.05764
20 *401:22 *971:B1 8.75889
21 *401:26 *401:27 119.38
22 *401:22 *401:23 0.69769
23 *401:25 *401:26 1.05764
24 *401:24 *401:23 8.75889
25 *401:24 *401:25 1.47537
26 *401:18 *401:24 222.594
27 *401:17 *401:18 8.75889
28 *401:20 *975:B1 8.75889
29 *401:15 *401:20 1.02209
30 *401:17 *401:19 291.234375
31 *401:21 *401:20 8.75889
32 *401:7 *401:19 2.15973
33 *401:16 *401:21 3.88395
34 *401:7 *401:6 21.1662
35 *401:6 *401:16 8.75889
36 *401:6 *904:Y 8.75889
37 *401:14 *401:6 1.02209
*END

*D_NET *402 0.0209026

*CONN
*I *905:Y O *C 551.75 336.885 *L 0 *D INVX4
*I *904:A I *C 764.1 337.155 *L 0.00241 *D CLKINVX6

*CAP
1 *905:Y 0.000346556
2 *904:A 2.26956e-05
3 *402:4 0.000359397
4 *402:5 1.79176e-05
5 *402:6 0.00978121
6 *402:7 0.00978524
7 *402:8 0.000287876
8 *402:9 1.79176e-05
9 *402:10 0.000283844

*RES
1 *402:9 *904:A 8.75749
2 *402:3 *402:9 1.02711
3 *402:10 *402:9 8.75749
4 *402:8 *402:10 19.9044
5 *402:7 *402:8 1.02711
6 *402:6 *402:7 708.556274
7 *905:Y *402:4 20.9747
8 *402:5 *402:6 8.75749
9 *402:5 *402:4 8.75749
10 *402:2 *402:5 1.02711
*END

*D_NET *403 0.0209553

*CONN
*I *906:Y O *C 337.35 336.885 *L 0 *D INVX4
*I *905:A I *C 551.585 337.005 *L 0.00161 *D INVX4

*CAP
1 *906:Y 0.000148585
2 *905:A 2.25937e-05
3 *403:2 0.01028248
4 *403:5 0.000161451
5 *403:6 1.78867e-05
6 *403:7 0.00898021
7 *403:8 1.0983e-05
8 *403:9 0.00132016
9 *403:10 1.0983e-05

*RES
1 *403:10 *905:A 8.76373
2 *403:4 *403:8 0.784071
3 *403:8 *403:10 0.158799
4 *403:9 *403:8 8.76373
5 *403:2 *403:9 95.071
6 *403:7 *403:2 650.441162
7 *906:Y *403:5 8.992
8 *403:6 *403:7 8.76373
9 *403:6 *403:5 8.76373
10 *403:3 *403:6 1.02227
*END

*D_NET *404 0.0215199

*CONN
*I *907:Y O *C 251.55 473.685 *L 0 *D INVX4
*I *906:A I *C 337.185 337.005 *L 0.00161 *D INVX4

*CAP
1 *907:Y 2.26506e-05
2 *906:A 2.26506e-05
3 *404:2 0.00189546
4 *404:3 0.00189546
5 *404:4 0.00428372
6 *404:5 0.000153379
7 *404:6 0.000171661
8 *404:7 0.00440477
9 *404:8 0.00428372
10 *404:9 0.00438649

*RES
1 *404:5 *906:A 8.7629
2 *404:5 *404:6 9.75243
3 *404:6 *404:7 2.15757
4 *404:7 *404:9 334.275696
5 *404:2 *907:Y 8.7629
6 *404:8 *404:9 8.7629
7 *404:3 *404:2 139.186
8 *404:4 *404:8 257.888
9 *404:4 *404:3 8.7629
*END

*D_NET *405 0.00434554

*CONN
*I *908:Y O *C 250.33 517.79 *L 0 *D INVX1
*I *907:A I *C 251.385 473.805 *L 0.00161 *D INVX4

*CAP
1 *908:Y 2.08384e-05
2 *907:A 2.26587e-05
3 *405:2 0.0017805
4 *405:3 0.0017805
5 *405:4 2.29575e-05
6 *405:5 2.76306e-05
7 *405:6 3.09995e-05
8 *405:7 2.63265e-05
9 *405:8 3.36892e-05
10 *405:2 *146:2 0.00014536
11 *405:3 *146:3 0.00014536
12 *405:4 *146:2 1.21e-06
13 *405:5 *146:3 1.21e-06
14 *405:6 *146:2 1.52e-06
15 *405:7 *146:3 1.52000397e-06
16 *405:2 *417:9 0.00014536
17 *405:3 *417:8 0.00014536
18 *405:4 *417:9 2.68e-06
19 *405:5 *417:8 2.68e-06
20 *405:6 *417:9 3.59e-06
21 *405:7 *417:8 3.59000386e-06

*RES
1 *405:7 *907:A 8.76077
2 *405:7 *405:6 1.69035
3 *405:6 *405:3 1.07695
4 *405:3 *405:2 153.432907
5 *405:5 *405:2 1.07695
6 *405:5 *405:4 1.35321
7 *405:8 *405:4 8.76077
8 *908:Y *405:8 1.20806
*END

*D_NET *406 0.0172894

*CONN
*I *909:Y O *C 250.13 701.63 *L 0 *D INVX3
*I *908:A I *C 250.1 518.415 *L 0.000395 *D INVX1

*CAP
1 *909:Y 8.03432e-05
2 *908:A 0.000105879
3 *406:2 0.000118584
4 *406:3 0.00816324
5 *406:4 9.31732e-05
6 *406:5 0.00816324
7 *406:5 *412:3 0.00015003
8 *406:3 *412:4 0.00015003
9 *406:5 *412:5 3.03e-06
10 *406:3 *412:6 3.03e-06
11 *406:5 *412:7 9.824e-05
12 *406:3 *412:8 9.824e-05
13 *406:5 *412:9 5.16e-06
14 *406:3 *412:10 5.16e-06
15 *406:5 *412:11 2.021e-05
16 *406:3 *412:12 2.021e-05
17 *406:5 *412:13 5.85e-06
18 *406:3 *412:14 5.84999967e-06

*RES
1 *406:4 *909:Y 5.02187
2 *406:5 *406:4 8.76266
3 *406:3 *406:5 671.660217
4 *406:2 *908:A 5.94426
5 *406:2 *406:3 8.76266
*END

*D_NET *407 0.0187463

*CONN
*I *1026:A I *C 1325.5649 250.01 *L 0.00021 *D AND2X1
*I *1024:B I *C 1202.2 247.995 *L 0.000212 *D NAND2XL
*I *1008:A1 I *C 1262.1 248.615 *L 0.000212 *D AOI21XL
*I *910:Y O *C 1387.54 250.34 *L 0 *D BUFX3

*CAP
1 *1026:A 2.26887e-05
2 *1024:B 2.26887e-05
3 *1008:A1 2.26887e-05
4 *910:Y 2.26887e-05
5 *407:4 3.1197e-05
6 *407:5 3.1197e-05
7 *407:6 0.00298735
8 *407:7 0.00301322
9 *407:8 5.69797e-05
10 *407:9 0.00281375
11 *407:10 0.00563222
12 *407:11 0.00284555
13 *407:14 1.7876e-05
14 *407:15 8.15591e-05
15 *407:16 8.15591e-05
16 *407:17 3.31737e-05
17 *407:18 1.7876e-05
18 *407:19 2.92203e-05
19 *407:9 *467:10 0.00016638
20 *407:10 *467:7 0.000166379993
21 *407:6 *166:10 1.305e-05
22 *407:7 *166:8 1.305e-05
23 *407:8 *166:2 1.72e-06
24 *407:9 *166:3 1.72e-06
25 *407:9 *166:2 0.00018103
26 *407:10 *166:3 0.00018103
27 *407:10 *166:2 0.00012922
28 *407:11 *166:3 0.000129219993

*RES
1 *407:13 *407:18 1.04937
2 *407:18 *910:Y 8.75902
3 *407:19 *407:18 8.75902
4 *407:17 *407:19 1.46698
5 *407:6 *407:17 1.06008
6 *407:5 *1024:B 8.75902
7 *407:16 *1026:A 8.75902
8 *407:7 *407:6 223.066
9 *407:5 *407:4 2.44139
10 *407:15 *407:16 4.86493
11 *407:8 *407:7 3.17666
12 *407:11 *407:4 8.75902
13 *407:9 *407:15 8.75902
14 *407:9 *407:8 2.53419
15 *407:11 *407:10 220.168
16 *407:10 *407:9 233.91655
17 *407:14 *1008:A1 8.75902
18 *407:14 *407:10 8.75902
19 *407:12 *407:14 1.05294
*END

*D_NET *408 0.0330917

*CONN
*I *1021:B I *C 250.1 577.695 *L 0.000392 *D NAND2X1
*I *1020:A I *C 249.965 521.39 *L 0.00021 *D AND2X1
*I *911:Y O *C 251.365 854.765 *L 0 *D CLKINVX6

*CAP
1 *1021:B 2.27177e-05
2 *1020:A 2.27177e-05
3 *911:Y 2.27177e-05
4 *408:3 0.00726245
5 *408:4 0.0072578
6 *408:5 0.000614818
7 *408:6 0.000619472
8 *408:7 0.000149826
9 *408:8 0.000149826
10 *408:9 0.00166304
11 *408:10 0.00166304
12 *408:11 9.64116e-05
13 *408:12 9.64116e-05
14 *408:13 0.000258981
15 *408:14 0.000254216
16 *408:15 0.000756332
17 *408:16 0.000756332
18 *408:17 3.18047e-05
19 *408:18 5.02005e-05
20 *408:19 0.00446042
21 *408:20 0.00444679
22 *408:22 1.79525e-05
23 *408:23 4.95356e-05
24 *408:24 4.54353e-05
25 *408:25 4.95356e-05
26 *408:26 4.54353e-05
27 *408:17 *376:7 1.124e-05
28 *408:18 *376:6 1.124e-05
29 *408:19 *376:7 0.00034474
30 *408:20 *376:6 0.000344740005
31 *408:3 *472:14 8.787e-05
32 *408:4 *472:12 8.787e-05
33 *408:3 *472:8 1.442e-05
34 *408:4 *472:6 1.442e-05
35 *408:15 *472:4 5.437e-05
36 *408:16 *472:2 5.437e-05
37 *408:3 *472:4 2.87e-06
38 *408:4 *472:2 2.86999576e-06
39 *408:3 *463:7 5.609e-05
40 *408:4 *463:8 5.609e-05
41 *408:3 *463:9 3.882e-05
42 *408:4 *463:10 3.882e-05
43 *408:3 *463:11 0.00012474
44 *408:4 *463:12 0.00012474
45 *408:3 *463:13 0.00011231
46 *408:4 *463:14 0.000112309986
47 *408:3 *418:2 8.72e-05
48 *408:4 *418:3 8.72e-05
49 *408:3 *418:2 0.00017809
50 *408:4 *418:3 0.00017809
51 *408:3 *418:4 1.03e-06
52 *408:4 *418:5 1.02998494e-06

*RES
1 *408:17 *911:Y 8.76384
2 *408:18 *408:17 2.19742
3 *408:19 *408:18 2.15434
4 *408:20 *408:19 361.015
5 *408:20 *408:15 1.07717
6 *408:16 *408:15 59.2356
7 *408:3 *408:16 1.07717
8 *408:4 *1021:B 8.76384
9 *408:4 *408:3 564.746216
10 *408:24 *408:4 8.76384
11 *408:24 *408:26 2.11125
12 *408:5 *408:26 8.76384
13 *408:6 *408:5 42.5783
14 *408:6 *408:7 1.07717
15 *408:8 *408:7 9.79792
16 *408:11 *408:8 1.07717
17 *408:12 *408:11 8.17786
18 *408:12 *408:9 1.07717
19 *408:10 *408:9 123.03
20 *408:13 *408:10 1.07717
21 *408:14 *408:13 18.7513
22 *408:25 *408:14 8.76384
23 *408:23 *408:25 2.80925
24 *408:22 *1020:A 8.76384
25 *408:22 *408:23 8.76384
26 *408:21 *408:22 1.05132
*END

*D_NET *409 0.013912

*CONN
*I *912:Y O *C 257.73 993.17 *L 0 *D INVX3
*I *911:A I *C 250.5 854.905 *L 0.00241 *D CLKINVX6

*CAP
1 *912:Y 2.00834e-05
2 *911:A 2.26566e-05
3 *409:2 7.34927e-05
4 *409:3 7.34927e-05
5 *409:4 3.47066e-05
6 *409:5 3.58991e-05
7 *409:6 3.3577e-05
8 *409:7 3.3577e-05
9 *409:8 6.32627e-05
10 *409:9 3.3577e-05
11 *409:10 6.32627e-05
12 *409:11 3.58991e-05
13 *409:12 3.3577e-05
14 *409:13 3.47066e-05
15 *409:14 0.000350456
16 *409:15 4.29911e-05
17 *409:16 0.000350456
18 *409:17 4.41835e-05
19 *409:18 0.000152697
20 *409:19 0.000384911
21 *409:20 0.000384911
22 *409:21 0.000151441
23 *409:22 0.00129337
24 *409:23 0.00129802
25 *409:24 0.00411302
26 *409:25 3.28866e-05
27 *409:26 0.00410831
28 *409:26 *420:2 0.00028162
29 *409:24 *420:3 0.00028162
30 *409:20 *420:4 2.465e-05
31 *409:19 *420:5 2.46499717e-05

*RES
1 *409:25 *912:Y 1.2102
2 *409:26 *409:25 8.76122
3 *409:24 *409:26 333.24173
4 *409:20 *409:24 1.07799
5 *409:19 *409:20 30.0414
6 *409:19 *409:23 1.07799
7 *409:22 *409:23 97.1057
8 *409:21 *409:22 8.76122
9 *409:18 *409:21 8.45613
10 *409:17 *409:18 1.30173
11 *409:15 *409:17 1.81021
12 *409:16 *409:15 8.76122
13 *409:14 *409:16 24.804
14 *409:13 *409:14 8.76122
15 *409:11 *409:13 1.20003
16 *409:11 *409:12 1.30173
17 *409:9 *409:12 1.2102
18 *409:9 *409:10 1.30173
19 *409:8 *409:10 3.02041
20 *409:7 *409:8 1.30173
21 *409:6 *409:7 1.2102
22 *409:5 *409:6 1.30173
23 *409:4 *409:5 1.20003
24 *409:2 *409:4 8.76122
25 *409:3 *409:2 4.71367
26 *911:A *409:3 8.76122
*END

*D_NET *410 0.0295323

*CONN
*I *1029:B I *C 249.775 462.025 *L 0.000392 *D NOR2X1
*I *1023:B I *C 250.975 701.425 *L 0.000392 *D NOR2X1
*I *1015:A1 I *C 250.9 461.225 *L 0.000212 *D AOI21XL
*I *913:Y O *C 259.965 751.115 *L 0 *D CLKINVX6

*CAP
1 *1029:B 2.26413e-05
2 *1023:B 2.26413e-05
3 *1015:A1 2.80555e-05
4 *913:Y 2.26413e-05
5 *410:4 9.30261e-05
6 *410:5 0.000114683
7 *410:6 0.01075214
8 *410:7 0.0100578
9 *410:8 0.00154322
10 *410:9 0.00224854
11 *410:10 0.000735021
12 *410:11 0.000739615
13 *410:13 3.97042e-05
14 *410:14 6.49706e-05
15 *410:15 0.0001283
16 *410:16 7.64553e-05
17 *410:17 1.78833e-05
18 *410:18 8.46586e-05
19 *410:19 0.0001283
20 *410:20 8.46586e-05
21 *410:21 0.000383589
22 *410:22 0.000383589
23 *410:23 2.24772e-05
24 *410:6 *498:2 0.00028173
25 *410:7 *498:3 0.00028173
26 *410:6 *498:4 7.89e-06
27 *410:7 *498:5 7.89000503e-06
28 *410:8 *313:2 0.00011046
29 *410:9 *313:3 0.00011046
30 *410:9 *313:2 5.213e-05
31 *410:6 *313:3 5.213e-05
32 *410:6 *313:2 0.00041648
33 *410:7 *313:3 0.000416479994

*RES
1 *1015:A1 *410:16 2.6006
2 *410:14 *410:16 2.42
3 *410:13 *1029:B 8.76498
4 *410:10 *913:Y 8.76498
5 *410:5 *410:14 8.76498
6 *410:13 *410:5 2.14309
7 *410:11 *410:10 53.8541
8 *410:5 *410:4 5.141
9 *410:23 *410:11 1.07154
10 *410:15 *410:4 8.76498
11 *410:22 *410:23 8.76498
12 *410:15 *410:19 7.75364
13 *410:21 *410:22 19.9379
14 *410:7 *410:19 8.76498
15 *410:8 *410:21 8.76498
16 *410:6 *410:9 56.1537
17 *410:7 *410:6 789.041138
18 *410:9 *410:8 120.506
19 *410:20 *410:9 8.76498
20 *410:18 *410:20 4.93632
21 *410:17 *1023:B 8.76498
22 *410:17 *410:18 8.76498
23 *410:12 *410:17 1.02338
*END

*D_NET *411 0.0230153

*CONN
*I *914:Y O *C 259.615 995.57 *L 0 *D CLKINVX4
*I *913:A I *C 259.1 750.975 *L 0.00241 *D CLKINVX6

*CAP
1 *914:Y 2.26982e-05
2 *913:A 1.97443e-05
3 *411:2 0.01018854
4 *411:3 0.00933207
5 *411:4 5.39471e-05
6 *411:5 4.92831e-05
7 *411:6 3.24926e-05
8 *411:7 0.000883675
9 *411:8 7.18258e-05
10 *411:9 6.71618e-05
11 *411:9 *413:2 4.5e-06
12 *411:8 *413:3 4.5e-06
13 *411:7 *413:2 5.719e-05
14 *411:2 *413:3 5.719e-05
15 *411:2 *413:2 0.00018567
16 *411:3 *413:3 0.00018567
17 *411:2 *413:3 0.00047995
18 *411:3 *413:4 0.00047995
19 *411:4 *413:3 1.23e-06
20 *411:5 *413:4 1.23003551e-06
21 *411:2 *419:2 0.00041644
22 *411:3 *419:3 0.00041644
23 *411:4 *419:2 1.99e-06
24 *411:5 *419:3 1.99002586e-06

*RES
1 *411:9 *914:Y 8.75714
2 *411:8 *411:9 4.70983
3 *411:7 *411:8 1.07206
4 *411:2 *411:7 69.6235
5 *411:3 *411:2 789.419678
6 *411:4 *411:3 1.07206
7 *411:5 *411:4 2.69821
8 *411:6 *913:A 1.20456
9 *411:6 *411:5 8.75714
*END

*D_NET *412 0.0293185

*CONN
*I *1027:B I *C 249.605 644.73 *L 0.000212 *D NOR2XL
*I *1025:B I *C 249.605 398.49 *L 0.000212 *D NOR2XL
*I *915:Y O *C 260.165 689.555 *L 0 *D CLKINVX6

*CAP
1 *1027:B 2.26767e-05
2 *1025:B 2.26767e-05
3 *915:Y 2.26767e-05
4 *412:3 0.00209073
5 *412:4 0.00209073
6 *412:5 4.37057e-05
7 *412:6 4.84136e-05
8 *412:7 0.00138367
9 *412:8 0.00138367
10 *412:9 7.94078e-05
11 *412:10 7.94078e-05
12 *412:11 0.000327361
13 *412:12 0.000327361
14 *412:13 0.000133392
15 *412:14 0.000133392
16 *412:15 5.90066e-05
17 *412:16 4.54319e-05
18 *412:17 6.89718e-05
19 *412:18 6.42638e-05
20 *412:19 0.000108283
21 *412:20 0.000108283
22 *412:21 0.00512871
23 *412:22 0.00514228
24 *412:23 9.73765e-05
25 *412:24 0.000105537
26 *412:25 2.05581e-05
27 *412:26 1.58502e-05
28 *412:27 3.60944e-05
29 *412:28 3.60944e-05
30 *412:29 0.00107773
31 *412:30 0.00107773
32 *412:31 3.74284e-05
33 *412:32 3.74284e-05
34 *412:33 6.04974e-05
35 *412:34 6.04974e-05
36 *412:35 3.53098e-05
37 *412:36 0.00048547
38 *412:37 5.05322e-05
39 *412:38 0.00048547
40 *412:39 4.99045e-05
41 *412:40 0.000100907
42 *412:41 9.6278e-05
43 *412:42 3.4682e-05
44 *412:43 0.00188076
45 *412:44 0.00188546
46 *412:23 *463:11 3.92e-06
47 *412:24 *463:12 3.92e-06
48 *412:23 *463:22 1.398e-05
49 *412:24 *463:21 1.398e-05
50 *412:25 *463:21 3.92e-06
51 *412:26 *463:20 3.92e-06
52 *412:27 *463:13 4.31e-06
53 *412:28 *463:14 4.31e-06
54 *412:29 *463:19 7.83e-06
55 *412:30 *463:18 7.83e-06
56 *412:5 *463:21 7.18e-06
57 *412:6 *463:20 7.18e-06
58 *412:31 *463:13 2.06e-06
59 *412:32 *463:14 2.06e-06
60 *412:7 *463:13 0.00010987
61 *412:8 *463:14 0.00010987
62 *412:7 *463:19 4.31e-06
63 *412:8 *463:18 4.31e-06
64 *412:13 *463:21 5.16e-06
65 *412:14 *463:20 5.16e-06
66 *412:29 *463:5 0.00019352
67 *412:30 *463:6 0.000193519999
68 *412:29 *436:19 8.963e-05
69 *412:30 *436:20 8.963e-05
70 *412:29 *436:21 2.87e-06
71 *412:30 *436:22 2.87e-06
72 *412:3 *436:11 0.00017107
73 *412:4 *436:12 0.00017107
74 *412:21 *436:13 0.00019503
75 *412:22 *436:14 0.00019503
76 *412:21 *436:14 1.61e-06
77 *412:22 *436:34 1.61e-06
78 *412:21 *436:33 4.69e-06
79 *412:22 *436:32 4.69e-06
80 *412:9 *436:21 5.19e-06
81 *412:10 *436:22 5.19e-06
82 *412:11 *436:15 1.668e-05
83 *412:12 *436:16 1.668e-05
84 *412:11 *436:16 5.19e-06
85 *412:12 *436:17 5.19e-06
86 *412:21 *436:30 3.81e-06
87 *412:22 *436:28 3.81e-06
88 *412:19 *436:27 6.37e-06
89 *412:20 *436:26 6.37e-06
90 *412:21 *436:27 0.00017757
91 *412:22 *436:26 0.000177569996
92 *412:3 *406:5 0.00015003
93 *412:4 *406:3 0.00015003
94 *412:5 *406:5 3.03e-06
95 *412:6 *406:3 3.03e-06
96 *412:7 *406:5 9.824e-05
97 *412:8 *406:3 9.824e-05
98 *412:9 *406:5 5.16e-06
99 *412:10 *406:3 5.16e-06
100 *412:11 *406:5 2.021e-05
101 *412:12 *406:3 2.021e-05
102 *412:13 *406:5 5.85e-06
103 *412:14 *406:3 5.84999967e-06

*RES
1 *412:18 *1025:B 8.75988
2 *412:18 *412:17 3.78931
3 *412:20 *412:17 1.11489
4 *412:20 *412:19 7.69807
5 *412:19 *412:16 1.11489
6 *412:16 *412:15 2.27624
7 *412:41 *915:Y 8.75988
8 *412:22 *412:15 2.22979
9 *412:40 *412:41 6.70263
10 *412:22 *412:21 434.91452
11 *412:40 *412:44 1.07508
12 *412:12 *412:21 1.11489
13 *412:43 *412:44 141.465
14 *412:12 *412:11 27.66
15 *412:42 *412:43 8.75988
16 *412:11 *412:4 1.11489
17 *412:39 *412:42 1.19453
18 *412:4 *412:3 186.22
19 *412:38 *412:39 2.60142
20 *412:10 *412:3 1.11489
21 *412:36 *412:38 27.1888
22 *412:10 *412:9 6.477
23 *412:36 *412:37 2.60142
24 *412:9 *412:30 1.11489
25 *412:26 *1027:B 8.75988
26 *412:35 *412:37 1.17462
27 *412:30 *412:29 101.634
28 *412:26 *412:25 0.763171
29 *412:23 *412:35 8.75988
30 *412:8 *412:29 1.11489
31 *412:25 *412:24 1.11489
32 *412:24 *412:23 7.76443
33 *412:8 *412:7 122.512
34 *412:34 *412:24 8.75988
35 *412:7 *412:28 1.11489
36 *412:33 *412:34 2.92659
37 *412:28 *412:27 2.09042
38 *412:5 *412:33 8.75988
39 *412:32 *412:27 1.11489
40 *412:6 *412:5 3.49731
41 *412:32 *412:31 2.09042
42 *412:13 *412:6 1.11489
43 *412:14 *412:31 1.11489
44 *412:14 *412:13 9.2775
*END

*D_NET *413 0.0303304

*CONN
*I *916:Y O *C 260.165 997.355 *L 0 *D CLKINVX6
*I *915:A I *C 259.3 689.415 *L 0.00241 *D CLKINVX6

*CAP
1 *916:Y 2.28247e-05
2 *915:A 2.28247e-05
3 *413:2 0.00374523
4 *413:3 0.01438287
5 *413:4 0.0106602
6 *413:5 2.21663e-05
7 *413:6 1.75575e-05
8 *413:2 *411:9 4.5e-06
9 *413:3 *411:8 4.5e-06
10 *413:2 *411:7 5.719e-05
11 *413:3 *411:2 5.719e-05
12 *413:2 *411:2 0.00018567
13 *413:3 *411:3 0.00018567
14 *413:3 *411:2 0.00047995
15 *413:4 *411:3 0.00047995
16 *413:3 *411:4 1.23e-06
17 *413:4 *411:5 1.23003551e-06

*RES
1 *413:6 *916:Y 8.76316
2 *413:5 *413:6 0.672242
3 *413:2 *413:5 1.08039
4 *413:3 *413:2 301.849
5 *413:4 *413:3 786.715332
6 *915:A *413:4 8.76316
*END

*D_NET *414 0.0205251

*CONN
*I *917:Y O *C 259.95 1215.825 *L 0 *D INVX4
*I *916:A I *C 259.3 997.215 *L 0.00241 *D CLKINVX6

*CAP
1 *917:Y 2.00145e-05
2 *916:A 2.26925e-05
3 *414:2 0.00921864
4 *414:3 0.00923696
5 *414:4 0.000349689
6 *414:5 0.000331366
7 *414:6 3.28406e-05
8 *414:2 *431:21 0.0006346
9 *414:3 *431:20 0.0006346
10 *414:4 *431:19 2.186e-05
11 *414:5 *431:18 2.18599983e-05

*RES
1 *917:Y *414:6 1.21084
2 *414:2 *414:6 8.76142
3 *414:3 *414:2 748.61615
4 *414:4 *414:3 2.14752
5 *414:5 *414:4 24.9021
6 *916:A *414:5 8.76142
*END

*D_NET *415 0.0218311

*CONN
*I *1018:A0 I *C 262.56 1770.11 *L 0.000211 *D AOI21XL
*I *918:Y O *C 262.55 1535.755 *L 0 *D INVX4

*CAP
1 *1018:A0 2.27694e-05
2 *918:Y 2.27694e-05
3 *415:2 0.01065854
4 *415:3 0.000194028
5 *415:4 0.000194028
6 *415:5 0.0102916
7 *415:6 0.00038952
8 *415:7 3.13893e-05
9 *415:8 2.66728e-05

*RES
1 *415:8 *1018:A0 8.75532
2 *415:7 *415:8 1.35342
3 *415:5 *918:Y 8.75532
4 *415:4 *415:7 1.07795
5 *415:2 *415:6 27.2241
6 *415:5 *415:2 784.936523
7 *415:3 *415:4 12.9952
8 *415:3 *415:6 1.07795
*END

*D_NET *416 0.0307683

*CONN
*I *919:Y O *C 260.965 1395.125 *L 0 *D CLKINVX6
*I *918:A I *C 262.385 1535.635 *L 0.00161 *D INVX4
*I *917:A I *C 259.785 1215.9449 *L 0.00161 *D INVX4

*CAP
1 *919:Y 2.25946e-05
2 *918:A 9.92946e-06
3 *917:A 9.82813e-06
4 *416:3 0.0052007
5 *416:4 0.00519604
6 *416:5 0.00230201
7 *416:6 0.00230667
8 *416:7 0.000409539
9 *416:8 0.000409539
10 *416:9 0.00664007
11 *416:10 0.000143673
12 *416:11 0.00650329
13 *416:12 0.00011966
14 *416:13 3.46518e-05
15 *416:14 0.000193624
16 *416:15 4.98499e-05
17 *416:16 1.69206e-05
18 *416:17 0.000113885
19 *416:18 0.000193624
20 *416:19 4.98499e-05
21 *416:20 3.46518e-05
22 *416:21 4.25548e-05
23 *416:22 3.66782e-05
24 *416:23 1.69206e-05
25 *416:3 *422:5 0.00035573
26 *416:4 *422:4 0.000355729992

*RES
1 *416:23 *918:A 0.605075
2 *416:22 *416:23 0.650455
3 *416:21 *416:22 1.81522
4 *416:11 *416:21 8.75846
5 *416:9 *416:11 495.677216
6 *416:9 *919:Y 8.75846
7 *416:10 *416:9 8.7282
8 *416:20 *416:10 8.75846
9 *416:19 *416:20 1.19502
10 *416:18 *416:19 2.60182
11 *416:14 *416:18 9.66607
12 *416:16 *917:A 0.605075
13 *416:14 *416:15 2.60182
14 *416:16 *416:17 0.650455
15 *416:13 *416:15 1.19502
16 *416:12 *416:17 6.04318
17 *416:5 *416:13 8.75846
18 *416:4 *416:12 8.75846
19 *416:6 *416:5 172.772
20 *416:4 *416:3 423.303
21 *416:7 *416:6 1.07401
22 *416:8 *416:3 1.07401
23 *416:8 *416:7 30.0495
*END

*D_NET *417 0.0235453

*CONN
*I *1028:B I *C 250.405 343.77 *L 0.000212 *D NOR2XL
*I *1022:B I *C 250.205 579.75 *L 0.000212 *D NOR2XL
*I *920:Y O *C 250.75 581.575 *L 0 *D INVX4

*CAP
1 *1028:B 2.26414e-05
2 *1022:B 2.81095e-05
3 *920:Y 2.26414e-05
4 *417:3 0.000244527
5 *417:4 0.000244527
6 *417:5 4.67353e-05
7 *417:6 0.00559456
8 *417:7 0.00559926
9 *417:8 0.00274311
10 *417:9 0.00274311
11 *417:10 0.00219562
12 *417:11 0.00219562
13 *417:12 7.53574e-05
14 *417:13 7.53574e-05
15 *417:14 9.80842e-05
16 *417:15 9.80842e-05
17 *417:16 4.53682e-05
18 *417:17 4.53682e-05
19 *417:18 8.27906e-05
20 *417:19 3.15271e-05
21 *417:20 0.000133285
22 *417:21 6.20289e-05
23 *417:9 *405:2 0.00014536
24 *417:8 *405:3 0.00014536
25 *417:9 *405:4 2.68e-06
26 *417:8 *405:5 2.68e-06
27 *417:9 *405:6 3.59e-06
28 *417:8 *405:7 3.59000386e-06
29 *417:9 *436:7 2.187e-05
30 *417:8 *436:8 2.187e-05
31 *417:7 *436:9 3.92e-06
32 *417:6 *436:10 3.92e-06
33 *417:13 *436:11 4.36e-06
34 *417:12 *436:12 4.36e-06
35 *417:11 *436:11 0.00016357
36 *417:10 *436:12 0.00016357
37 *417:9 *436:13 0.00019434
38 *417:8 *436:14 0.00019434
39 *417:4 *436:15 1.461e-05
40 *417:3 *436:16 1.461e-05
41 *417:9 *436:16 4.55e-06
42 *417:8 *436:17 4.54999656e-06

*RES
1 *417:5 *1022:B 2.60347
2 *417:5 *417:19 1.54348
3 *417:21 *920:Y 8.75881
4 *417:20 *417:19 8.75881
5 *417:20 *417:21 7.20912
6 *417:18 *417:20 8.8022
7 *417:13 *417:18 1.07858
8 *417:6 *1028:B 8.75881
9 *417:12 *417:13 4.72963
10 *417:6 *417:7 406.240021
11 *417:12 *417:17 1.07858
12 *417:7 *417:14 1.07858
13 *417:16 *417:17 2.19435
14 *417:14 *417:15 5.40529
15 *417:11 *417:16 1.07858
16 *417:8 *417:15 1.07858
17 *417:10 *417:11 173.05
18 *417:8 *417:9 224.667
19 *417:4 *417:10 1.07858
20 *417:3 *417:9 1.07858
21 *417:3 *417:4 17.747
*END

*D_NET *418 0.00914985

*CONN
*I *921:Y O *C 257.73 668.76 *L 0 *D INVX2
*I *920:A I *C 250.585 581.455 *L 0.00161 *D INVX4

*CAP
1 *921:Y 3.01205e-05
2 *920:A 2.26589e-05
3 *418:2 0.00359553
4 *418:3 0.00359553
5 *418:4 1.1302e-05
6 *418:5 1.1302e-05
7 *418:7 5.34378e-05
8 *418:8 5.34378e-05
9 *418:9 3.29186e-05
10 *418:10 3.41256e-05
11 *418:11 0.000307843
12 *418:12 4.41657e-05
13 *418:13 0.000307843
14 *418:2 *313:2 0.00025858
15 *418:3 *313:3 0.000258580004
16 *418:2 *408:3 8.72e-05
17 *418:3 *408:4 8.72e-05
18 *418:2 *408:3 0.00017809
19 *418:3 *408:4 0.00017809
20 *418:4 *408:3 1.03e-06
21 *418:5 *408:4 1.02998494e-06

*RES
1 *418:12 *921:Y 1.81474
2 *418:12 *418:13 1.30096
3 *418:11 *418:13 17.5205
4 *418:10 *418:11 1.30096
5 *418:9 *418:10 1.20669
6 *418:2 *418:9 8.76261
7 *418:3 *418:2 308.911621
8 *418:8 *418:3 8.76261
9 *418:5 *920:A 8.76261
10 *418:7 *418:8 2.81403
11 *418:5 *418:4 0.22154
12 *418:4 *418:7 8.76261
13 *418:6 *418:4 0.22154
*END

*D_NET *419 0.0208623

*CONN
*I *922:Y O *C 258.15 890.925 *L 0 *D INVX4
*I *921:A I *C 257.3 668.895 *L 0.000801 *D INVX2

*CAP
1 *922:Y 2.27598e-05
2 *921:A 2.27598e-05
3 *419:2 0.0099119
4 *419:3 0.00994376
5 *419:4 4.62783e-05
6 *419:5 7.8142e-05
7 *419:2 *411:2 0.00041644
8 *419:3 *411:3 0.00041644
9 *419:2 *411:4 1.99e-06
10 *419:3 *411:5 1.99002586e-06

*RES
1 *419:2 *922:Y 8.76022
2 *419:3 *419:2 782.165833
3 *419:5 *419:3 3.23436
4 *419:4 *419:5 2.68535
5 *921:A *419:4 8.76022
*END

*D_NET *420 0.0210381

*CONN
*I *923:Y O *C 258.15 1113.225 *L 0 *D INVX4
*I *922:A I *C 257.985 891.045 *L 0.00161 *D INVX4

*CAP
1 *923:Y 2.26442e-05
2 *922:A 2.26442e-05
3 *420:2 0.00418526
4 *420:3 0.00418526
5 *420:4 0.000387871
6 *420:5 0.000369571
7 *420:6 0.0001845
8 *420:7 0.0001845
9 *420:8 0.00466663
10 *420:9 0.00465303
11 *420:10 0.000417921
12 *420:11 0.000413221
13 *420:11 *434:5 2.843e-05
14 *420:10 *434:6 2.843e-05
15 *420:9 *434:5 0.0003184
16 *420:8 *434:6 0.0003184
17 *420:2 *434:7 7.83e-06
18 *420:3 *434:8 7.83e-06
19 *420:7 *434:9 8.62e-06
20 *420:6 *434:7 8.62e-06
21 *420:7 *434:7 2.99e-06
22 *420:6 *434:8 2.98998208e-06
23 *420:2 *409:26 0.00028162
24 *420:3 *409:24 0.00028162
25 *420:4 *409:20 2.465e-05
26 *420:5 *409:19 2.46499717e-05

*RES
1 *420:11 *923:Y 8.76105
2 *420:10 *420:11 31.6387
3 *420:9 *420:10 1.07572
4 *420:8 *420:9 376.995575
5 *420:7 *420:8 2.15143
6 *420:6 *420:7 12.1148
7 *420:6 *420:2 2.15143
8 *420:3 *420:2 337.407
9 *420:4 *420:3 2.15143
10 *420:5 *420:4 27.9341
11 *922:A *420:5 8.76105
*END

*D_NET *421 0.0206349

*CONN
*I *1018:A1 I *C 262.7 1770.515 *L 0.000212 *D AOI21XL
*I *924:Y O *C 259.53 1554.05 *L 0 *D INVX3

*CAP
1 *1018:A1 2.26399e-05
2 *924:Y 2.26399e-05
3 *421:2 0.00784564
4 *421:3 0.00785031
5 *421:4 7.98986e-05
6 *421:5 7.52269e-05
7 *421:6 0.000213343
8 *421:7 0.000218134
9 *421:8 0.00140368
10 *421:9 0.001399
11 *421:10 0.000114997
12 *421:11 0.00011895
13 *421:12 9.25962e-05
14 *421:13 8.85234e-05
15 *421:2 *432:7 1.072e-05
16 *421:3 *432:6 1.072e-05
17 *421:2 *432:3 0.00052938
18 *421:3 *432:2 0.00052938
19 *421:4 *432:3 4.55e-06
20 *421:5 *432:2 4.55001658e-06

*RES
1 *421:6 *1018:A1 8.76542
2 *421:7 *421:6 14.2389
3 *421:7 *421:8 1.08107
4 *421:9 *421:8 104.571
5 *421:13 *421:9 8.76542
6 *421:12 *421:13 5.63909
7 *421:11 *421:12 1.02263
8 *421:10 *421:11 7.05129
9 *421:2 *421:10 8.76542
10 *421:3 *421:2 638.278381
11 *421:4 *421:3 1.08107
12 *421:5 *421:4 5.38586
13 *924:Y *421:5 8.76542
*END

*D_NET *422 0.0208904

*CONN
*I *925:Y O *C 258.15 1335.525 *L 0 *D INVX4
*I *923:A I *C 257.985 1113.345 *L 0.00161 *D INVX4

*CAP
1 *925:Y 2.26891e-05
2 *923:A 2.26891e-05
3 *422:2 2.16902e-05
4 *422:3 3.99557e-05
5 *422:4 0.00935178
6 *422:5 0.00933822
7 *422:6 2.95387e-05
8 *422:7 2.48296e-05
9 *422:7 *434:10 1.37e-06
10 *422:6 *434:5 1.37e-06
11 *422:5 *434:10 0.00034459
12 *422:4 *434:5 0.00034459
13 *422:5 *434:5 0.00031781
14 *422:4 *434:6 0.000317810027
15 *422:5 *416:3 0.00035573
16 *422:4 *416:4 0.000355729992

*RES
1 *422:7 *925:Y 8.76006
2 *422:6 *422:7 1.34217
3 *422:5 *422:6 1.07853
4 *422:4 *422:5 785.361206
5 *422:3 *422:4 2.15706
6 *422:2 *422:3 1.00663
7 *923:A *422:2 8.76006
*END

*D_NET *423 0.0208284

*CONN
*I *926:Y O *C 258.75 1381.855 *L 0 *D INVX4
*I *925:A I *C 257.985 1335.645 *L 0.00161 *D INVX4
*I *924:A I *C 258.9 1554.675 *L 0.0012 *D INVX3

*CAP
1 *926:Y 4.53235e-05
2 *925:A 2.26987e-05
3 *924:A 1.96673e-05
4 *423:3 0.000394159
5 *423:4 0.000412495
6 *423:5 0.00152399
7 *423:6 0.00152399
8 *423:7 0.000319261
9 *423:8 0.000300924
10 *423:9 0.000520813
11 *423:10 0.000520813
12 *423:11 0.00068244
13 *423:12 0.00068244
14 *423:13 5.55268e-05
15 *423:14 6.02588e-05
16 *423:15 0.00484547
17 *423:16 0.00484547
18 *423:17 0.00163201
19 *423:18 3.25323e-05
20 *423:19 0.00162736
21 *423:16 *431:7 0.00032747
22 *423:15 *431:8 0.00032747
23 *423:16 *431:8 3.21e-06
24 *423:15 *431:9 3.21e-06
25 *423:16 *431:9 1.21e-06
26 *423:15 *431:10 1.21e-06
27 *423:12 *431:11 4.85e-05
28 *423:11 *431:12 4.84999741e-05

*RES
1 *423:18 *924:A 1.20973
2 *423:19 *423:18 8.76155
3 *423:17 *423:19 122.692
4 *423:12 *423:17 1.07798
5 *423:11 *423:12 54.1922
6 *423:11 *423:16 1.07798
7 *423:15 *423:16 392.479065
8 *423:10 *423:15 1.07798
9 *423:9 *423:10 38.5436
10 *423:9 *423:14 1.07798
11 *423:13 *423:14 3.36568
12 *926:Y *423:13 8.76155
13 *423:8 *926:Y 8.76155
14 *423:7 *423:8 20.8708
15 *423:6 *423:7 2.14996
16 *423:5 *423:6 114.08
17 *423:4 *423:5 2.14996
18 *423:3 *423:4 27.9435
19 *925:A *423:3 8.76155
*END

*D_NET *424 0.024711

*CONN
*I *1017:B I *C 250.765 703.025 *L 0.000392 *D NOR2BX1
*I *927:Y O *C 471.15 702.825 *L 0 *D INVX4

*CAP
1 *1017:B 2.26369e-05
2 *927:Y 2.26369e-05
3 *424:3 1.78519e-05
4 *424:4 0.000231891
5 *424:5 0.01206107
6 *424:6 0.000235755
7 *424:7 3.11028e-05
8 *424:8 3.11028e-05
9 *424:9 0.012057

*RES
1 *424:7 *927:Y 8.76107
2 *424:7 *424:8 1.466
3 *424:9 *424:8 8.76107
4 *424:5 *424:9 762.504089
5 *424:5 *424:6 1.02387
6 *424:4 *424:6 15.5209
7 *424:3 *1017:B 8.76107
8 *424:3 *424:4 8.76107
9 *424:2 *424:3 1.02387
*END

*D_NET *425 0.0233335

*CONN
*I *928:Y O *C 690.95 702.825 *L 0 *D INVX4
*I *927:A I *C 470.985 702.945 *L 0.00161 *D INVX4

*CAP
1 *928:Y 2.26777e-05
2 *927:A 2.26777e-05
3 *425:2 4.9223e-05
4 *425:3 3.21707e-05
5 *425:4 3.41045e-05
6 *425:5 3.41045e-05
7 *425:6 0.0026206
8 *425:7 0.01152082
9 *425:8 3.1116e-05
10 *425:9 3.1116e-05
11 *425:10 0.00893503

*RES
1 *425:8 *928:Y 8.76484
2 *425:8 *425:9 1.4638
3 *425:10 *425:9 8.76484
4 *425:7 *425:10 588.53772
5 *425:6 *425:7 188.13
6 *425:2 *425:6 2.04752
7 *425:4 *927:A 8.76484
8 *425:3 *425:2 2.44266
9 *425:5 *425:4 1.66137
10 *425:5 *425:3 8.76484
*END

*D_NET *426 0.0219783

*CONN
*I *929:Y O *C 910.55 702.825 *L 0 *D INVX4
*I *928:A I *C 690.785 702.945 *L 0.00161 *D INVX4

*CAP
1 *929:Y 2.27215e-05
2 *928:A 2.27215e-05
3 *426:2 4.90917e-05
4 *426:3 3.21749e-05
5 *426:4 3.41651e-05
6 *426:5 3.41651e-05
7 *426:6 0.01086899
8 *426:7 3.11798e-05
9 *426:8 3.11798e-05
10 *426:9 0.0108521

*RES
1 *426:7 *929:Y 8.76171
2 *426:7 *426:8 1.46818
3 *426:9 *426:8 8.76171
4 *426:6 *426:9 775.955872
5 *426:2 *426:6 2.04835
6 *426:4 *928:A 8.76171
7 *426:3 *426:2 2.43907
8 *426:5 *426:4 1.65762
9 *426:5 *426:3 8.76171
*END

*D_NET *427 0.0224281

*CONN
*I *930:Y O *C 1130.15 702.825 *L 0 *D INVX4
*I *929:A I *C 910.385 702.945 *L 0.00161 *D INVX4

*CAP
1 *930:Y 2.26546e-05
2 *929:A 2.26546e-05
3 *427:2 4.90285e-05
4 *427:3 3.21221e-05
5 *427:4 3.41509e-05
6 *427:5 3.41509e-05
7 *427:6 1.96114e-05
8 *427:7 1.96114e-05
9 *427:8 0.00286682
10 *427:9 0.0110796
11 *427:10 0.00824761

*RES
1 *427:7 *930:Y 8.75795
2 *427:7 *427:6 0.730554
3 *427:10 *427:6 8.75795
4 *427:9 *427:10 569.971436
5 *427:8 *427:9 205.981
6 *427:2 *427:8 2.05251
7 *427:4 *929:A 8.75795
8 *427:3 *427:2 2.44388
9 *427:5 *427:4 1.66114
10 *427:5 *427:3 8.75795
*END

*D_NET *428 0.031082

*CONN
*I *931:Y O *C 1262.165 523.025 *L 0 *D CLKINVX6
*I *930:A I *C 1129.985 702.945 *L 0.00161 *D INVX4

*CAP
1 *931:Y 2.26368e-05
2 *930:A 2.26368e-05
3 *428:2 0.00040638
4 *428:3 0.000388076
5 *428:4 0.00709811
6 *428:5 0.00171574
7 *428:6 0.00173405
8 *428:7 0.00609787
9 *428:8 0.00709811
10 *428:9 0.00609321
11 *428:10 0.000200266
12 *428:11 0.000204923

*RES
1 *428:10 *931:Y 8.75817
2 *428:10 *428:11 13.4528
3 *428:7 *428:11 1.07793
4 *428:7 *428:9 464.757568
5 *428:8 *428:9 8.75817
6 *428:4 *428:8 395.472
7 *428:5 *428:4 8.75817
8 *428:3 *930:A 8.75817
9 *428:5 *428:6 129.812
10 *428:2 *428:3 27.8418
11 *428:2 *428:6 2.15586
*END

*D_NET *429 0.0231485

*CONN
*I *932:Y O *C 1261.95 297.715 *L 0 *D INVX4
*I *931:A I *C 1261.3 523.165 *L 0.00241 *D CLKINVX6

*CAP
1 *932:Y 2.27185e-05
2 *931:A 1.98316e-05
3 *429:2 0.000281533
4 *429:3 0.000281533
5 *429:4 0.00822572
6 *429:5 0.00822572
7 *429:6 0.000268354
8 *429:7 0.000268354
9 *429:8 0.00230423
10 *429:9 3.26343e-05
11 *429:10 0.00229946
12 *429:11 2.39736e-05
13 *429:12 2.84922e-05
14 *429:12 *281:2 2.87e-06
15 *429:11 *281:3 2.87e-06
16 *429:2 *281:2 1.721e-05
17 *429:3 *281:3 1.721e-05
18 *429:4 *281:2 0.00039089
19 *429:5 *281:3 0.00039089
20 *429:4 *281:4 6.56e-06
21 *429:5 *281:5 6.56e-06
22 *429:7 *281:6 1.546e-05
23 *429:6 *281:7 1.54600056e-05

*RES
1 *429:11 *932:Y 8.76462
2 *429:11 *429:12 1.34909
3 *429:9 *931:A 1.19721
4 *429:3 *429:12 1.08106
5 *429:10 *429:9 8.76462
6 *429:3 *429:2 20.3436
7 *429:8 *429:10 173.568
8 *429:5 *429:2 1.08106
9 *429:7 *429:8 1.08106
10 *429:5 *429:4 585.523315
11 *429:6 *429:7 20.7278
12 *429:6 *429:4 1.08106
*END

*D_NET *430 0.0185412

*CONN
*I *1016:B I *C 1266.5649 251.59 *L 0.000212 *D NAND2BXL
*I *1011:B0 I *C 1266.665 249.795 *L 0.00039 *D OAI2BB1X1
*I *1004:B0 I *C 1263.265 249.795 *L 0.00039 *D OAI2BB1X1
*I *933:Y O *C 1388.74 250.34 *L 0 *D BUFX3
*I *932:A I *C 1261.785 297.595 *L 0.00161 *D INVX4

*CAP
1 *1016:B 2.268e-05
2 *1011:B0 2.268e-05
3 *1004:B0 2.268e-05
4 *933:Y 2.268e-05
5 *932:A 2.268e-05
6 *430:5 0.00229419
7 *430:6 0.00229419
8 *430:7 0.00578205
9 *430:8 0.00589815
10 *430:9 0.00012303
11 *430:10 8.082e-05
12 *430:11 6.381e-05
13 *430:12 0.00023715
14 *430:13 0.00025407
15 *430:16 1.791e-05
16 *430:17 7.497e-05
17 *430:18 7.155e-05
18 *430:19 2.601e-05
19 *430:20 2.214e-05
20 *430:21 3.654e-05
21 *430:22 2.592e-05
22 *430:23 1.791e-05
23 *430:7 *344:9 0.00038549
24 *430:8 *344:7 0.000385489987
25 *430:7 *467:13 2.45e-06
26 *430:8 *467:11 2.45e-06
27 *430:7 *467:10 0.00016559
28 *430:8 *467:7 0.000165590002

*RES
1 *430:5 *932:A 8.75799
2 *430:6 *430:5 159.99
3 *430:11 *430:6 8.75799
4 *430:11 *430:10 3.52934
5 *430:13 *430:10 2.0433
6 *430:13 *430:12 15.5552
7 *430:22 *430:12 8.75799
8 *430:21 *1016:B 8.75799
9 *430:21 *430:22 1.34156
10 *430:20 *430:21 0.667341
11 *430:18 *430:20 1.07325
12 *430:19 *1011:B0 8.75799
13 *430:15 *430:23 1.05261
14 *430:23 *933:Y 8.75799
15 *430:17 *430:18 7.03804
16 *430:17 *430:19 1.11453
17 *430:7 *430:23 8.75799
18 *430:8 *430:17 8.75799
19 *430:8 *430:7 450.874725
20 *430:9 *430:8 13.8146
21 *430:16 *1004:B0 8.75799
22 *430:16 *430:9 8.75799
23 *430:14 *430:16 1.05261
*END

*D_NET *431 0.0497363

*CONN
*I *1037:A I *C 258.3 995.315 *L 0.00039 *D NAND2X1
*I *1036:AN I *C 259.5 1381.775 *L 0.00021 *D NAND2BX1
*I *1034:B I *C 259.7 1393.9351 *L 0.000392 *D NAND2BX1
*I *1032:B I *C 258.205 993.57 *L 0.000212 *D NOR2XL
*I *934:Y O *C 259.78 1520.485 *L 0 *D BUFX12

*CAP
1 *1037:A 2.25765e-05
2 *1036:AN 2.25765e-05
3 *1034:B 9.92589e-06
4 *1032:B 2.25765e-05
5 *934:Y 2.25765e-05
6 *431:5 3.97036e-05
7 *431:6 3.50326e-05
8 *431:7 0.00482009
9 *431:8 0.00482826
10 *431:9 6.57834e-05
11 *431:10 0.000564219
12 *431:11 0.000669316
13 *431:12 0.000701235
14 *431:13 4.35961e-05
15 *431:14 3.13347e-05
16 *431:15 2.86099e-05
17 *431:16 8.38835e-05
18 *431:17 0.000111131
19 *431:18 0.000350326
20 *431:19 0.000323078
21 *431:20 0.00914194
22 *431:21 0.01275477
23 *431:22 0.00364008
24 *431:23 0.00317239
25 *431:24 0.00370625
26 *431:25 2.27712e-05
27 *431:21 *414:2 0.0006346
28 *431:20 *414:3 0.0006346
29 *431:19 *414:4 2.186e-05
30 *431:18 *414:5 2.18599983e-05
31 *431:10 *434:11 3.988e-05
32 *431:24 *434:12 3.988e-05
33 *431:24 *434:11 6.9e-07
34 *431:23 *434:12 6.9e-07
35 *431:24 *434:12 2.049e-05
36 *431:23 *434:13 2.049e-05
37 *431:24 *434:10 0.00019509
38 *431:23 *434:5 0.00019509
39 *431:22 *434:10 0.00024787
40 *431:21 *434:5 0.00024787
41 *431:21 *434:10 1.839e-05
42 *431:20 *434:5 1.839e-05
43 *431:21 *434:5 0.00064741
44 *431:20 *434:6 0.00064741
45 *431:19 *434:5 2.104e-05
46 *431:18 *434:6 2.104e-05
47 *431:15 *434:9 2.87e-06
48 *431:13 *434:7 2.87e-06
49 *431:13 *434:9 1.44e-06
50 *431:14 *434:7 1.44e-06
51 *431:5 *434:7 1.923e-05
52 *431:6 *434:8 1.92300263e-05
53 *431:7 *423:16 0.00032747
54 *431:8 *423:15 0.00032747
55 *431:8 *423:16 3.21e-06
56 *431:9 *423:15 3.21e-06
57 *431:9 *423:16 1.21e-06
58 *431:10 *423:15 1.21e-06
59 *431:11 *423:12 4.85e-05
60 *431:12 *423:11 4.84999741e-05

*RES
1 *431:11 *934:Y 8.75675
2 *431:12 *431:11 52.5043
3 *431:12 *431:7 3.23252
4 *431:8 *431:7 387.77
5 *431:25 *1034:B 0.603082
6 *431:9 *431:8 4.22157
7 *431:10 *431:25 8.75675
8 *431:10 *431:9 1.3509
9 *431:24 *1036:AN 8.75675
10 *431:24 *431:10 43.0842
11 *431:23 *431:24 255.827
12 *431:22 *431:23 1.07349
13 *431:21 *431:22 293.797
14 *431:20 *431:21 790.471497
15 *431:19 *431:20 1.07349
16 *431:18 *431:19 25.8481
17 *431:17 *431:18 3.23252
18 *431:16 *431:17 5.36743
19 *431:15 *431:16 1.07349
20 *431:13 *1037:A 8.75675
21 *431:13 *431:15 1.3509
22 *431:14 *431:13 2.31583
23 *431:5 *431:14 1.07349
24 *431:6 *431:5 5.23475
25 *1032:B *431:6 8.75675
*END

*D_NET *432 0.0203561

*CONN
*I *935:Y O *C 260.33 1737.89 *L 0 *D INVX3
*I *934:A I *C 260.3 1520.285 *L 0.00119 *D BUFX12

*CAP
1 *935:Y 2.26296e-05
2 *934:A 2.26296e-05
3 *432:2 0.00926893
4 *432:3 0.00926893
5 *432:4 0.000105935
6 *432:5 0.000110602
7 *432:6 0.000235772
8 *432:7 0.000231104
9 *432:7 *421:2 1.072e-05
10 *432:6 *421:3 1.072e-05
11 *432:3 *421:2 0.00052938
12 *432:2 *421:3 0.00052938
13 *432:3 *421:4 4.55e-06
14 *432:2 *421:5 4.55001658e-06

*RES
1 *432:7 *935:Y 8.75695
2 *432:4 *934:A 8.75695
3 *432:6 *432:7 16.151
4 *432:4 *432:5 7.40536
5 *432:3 *432:6 1.079
6 *432:2 *432:5 1.079
7 *432:2 *432:3 744.352478
*END

*D_NET *433 0.00408048

*CONN
*I *936:Y O *C 259.53 1779.77 *L 0 *D INVX1
*I *935:A I *C 259.7 1737.265 *L 0.0012 *D INVX3

*CAP
1 *936:Y 2.26663e-05
2 *935:A 2.26663e-05
3 *433:2 0.0017726
4 *433:3 0.00176792
5 *433:4 0.000244975
6 *433:5 0.000249654

*RES
1 *433:4 *935:A 8.76041
2 *433:4 *433:5 16.7644
3 *433:3 *936:Y 8.76041
4 *433:2 *433:5 1.07573
5 *433:2 *433:3 133.268921
*END

*D_NET *434 0.0568159

*CONN
*I *1037:B I *C 258.5 994.935 *L 0.000392 *D NAND2X1
*I *1036:B I *C 258.9 1381.585 *L 0.000392 *D NAND2BX1
*I *1034:AN I *C 260.3 1393.745 *L 0.00021 *D NAND2BX1
*I *1032:A I *C 257.97 993.65 *L 0.000212 *D NOR2XL
*I *937:Y O *C 276.3 1580.64 *L 0 *D CLKINVX20

*CAP
1 *1037:B 3.68831e-05
2 *1036:B 2.26058e-05
3 *1034:AN 2.26058e-05
4 *1032:A 2.26058e-05
5 *937:Y 2.26058e-05
6 *434:5 0.01559441
7 *434:6 0.00914534
8 *434:7 0.000107794
9 *434:8 4.71152e-05
10 *434:9 9.97033e-05
11 *434:10 0.00651736
12 *434:11 0.00055515
13 *434:12 0.00086592
14 *434:13 0.000336231
15 *434:14 2.37955e-05
16 *434:15 2.85547e-05
17 *434:16 0.000149436
18 *434:17 0.000149436
19 *434:18 0.0079815
20 *434:19 0.0079953
21 *434:21 4.97327e-05
22 *434:22 8.30464e-05
23 *434:23 1.80846e-05
24 *434:24 0.000688643
25 *434:25 3.61692e-05
26 *434:26 0.000612497
27 *434:14 *452:7 2.87e-06
28 *434:15 *452:6 2.87e-06
29 *434:16 *452:7 6.54e-06
30 *434:17 *452:6 6.54e-06
31 *434:18 *452:7 1.166e-05
32 *434:19 *452:6 1.166e-05
33 *434:18 *452:6 0.00053611
34 *434:19 *452:5 0.00053610998
35 *434:11 *431:10 3.988e-05
36 *434:12 *431:24 3.988e-05
37 *434:11 *431:24 6.9e-07
38 *434:12 *431:23 6.9e-07
39 *434:12 *431:24 2.049e-05
40 *434:13 *431:23 2.049e-05
41 *434:10 *431:24 0.00019509
42 *434:5 *431:23 0.00019509
43 *434:10 *431:22 0.00024787
44 *434:5 *431:21 0.00024787
45 *434:10 *431:21 1.839e-05
46 *434:5 *431:20 1.839e-05
47 *434:5 *431:21 0.00064741
48 *434:6 *431:20 0.00064741
49 *434:5 *431:19 2.104e-05
50 *434:6 *431:18 2.104e-05
51 *434:9 *431:15 2.87e-06
52 *434:7 *431:13 2.87e-06
53 *434:9 *431:13 1.44e-06
54 *434:7 *431:14 1.44e-06
55 *434:7 *431:5 1.923e-05
56 *434:8 *431:6 1.92300263e-05
57 *434:10 *422:7 1.37e-06
58 *434:5 *422:6 1.37e-06
59 *434:10 *422:5 0.00034459
60 *434:5 *422:4 0.00034459
61 *434:5 *422:5 0.00031781
62 *434:6 *422:4 0.000317810027
63 *434:5 *420:11 2.843e-05
64 *434:6 *420:10 2.843e-05
65 *434:5 *420:9 0.0003184
66 *434:6 *420:8 0.0003184
67 *434:7 *420:2 7.83e-06
68 *434:8 *420:3 7.83e-06
69 *434:9 *420:7 8.62e-06
70 *434:7 *420:6 8.62e-06
71 *434:7 *420:7 2.99e-06
72 *434:8 *420:6 2.98998208e-06

*RES
1 *434:21 *1037:B 1.80959
2 *434:8 *1032:A 8.75842
3 *434:7 *434:21 8.75842
4 *434:8 *434:7 5.47703
5 *434:14 *937:Y 8.75842
6 *434:7 *434:9 10.2302
7 *434:15 *434:14 1.35116
8 *434:9 *434:6 3.23314
9 *434:16 *434:15 1.07369
10 *434:5 *434:10 551.768
11 *434:6 *434:5 790.622253
12 *434:17 *434:16 9.42194
13 *434:10 *434:13 2.14738
14 *434:18 *434:17 1.07369
15 *434:12 *1036:B 8.75842
16 *434:13 *434:12 23.6453
17 *434:19 *434:18 648.316
18 *434:12 *434:11 43.3216
19 *434:25 *434:19 2.14738
20 *434:22 *434:11 8.75842
21 *434:26 *434:25 8.75842
22 *434:22 *434:24 4.93415
23 *434:24 *434:26 41.6085
24 *434:23 *1034:AN 8.75842
25 *434:23 *434:24 8.75842
26 *434:20 *434:23 1.01337
*END

*D_NET *435 0.0180662

*CONN
*I *938:Y O *C 275.815 1771.91 *L 0 *D CLKINVX4
*I *937:A I *C 275.705 1580.1 *L 0.00804 *D CLKINVX20

*CAP
1 *938:Y 2.27029e-05
2 *937:A 2.27029e-05
3 *435:2 0.00845362
4 *435:3 0.00845362
5 *435:4 0.000488629
6 *435:5 0.000488629
7 *435:6 6.81088e-05
8 *435:7 6.81088e-05

*RES
1 *435:4 *938:Y 8.76184
2 *435:5 *435:4 34.9004
3 *435:7 *435:5 8.76184
4 *435:6 *435:7 3.01862
5 *435:2 *435:6 8.76184
6 *435:3 *435:2 642.300049
7 *937:A *435:3 8.76184
*END

*D_NET *436 0.0286757

*CONN
*I *1038:A I *C 249.7 607.335 *L 0.000801 *D INVX2
*I *1029:A I *C 249.5 461.605 *L 0.000392 *D NOR2X1
*I *1028:A I *C 250.17 343.85 *L 0.000212 *D NOR2XL
*I *1025:A I *C 249.37 398.57 *L 0.000212 *D NOR2XL
*I *1020:B I *C 249.5 521.645 *L 0.000211 *D AND2X1
*I *1015:A0 I *C 250.76 461.63 *L 0.000211 *D AOI21XL
*I *939:Y O *C 268.965 607.475 *L 0 *D CLKINVX6

*CAP
1 *1038:A 2.27044e-05
2 *1029:A 2.27044e-05
3 *1028:A 2.27044e-05
4 *1025:A 2.27044e-05
5 *1020:B 2.27044e-05
6 *1015:A0 2.27044e-05
7 *939:Y 2.27044e-05
8 *436:7 6.1302e-05
9 *436:8 6.1302e-05
10 *436:9 1.56311e-05
11 *436:10 1.56311e-05
12 *436:11 0.0020751
13 *436:12 0.0020751
14 *436:13 0.00233262
15 *436:14 0.00235838
16 *436:15 0.000245295
17 *436:16 0.000304676
18 *436:17 7.55359e-05
19 *436:18 1.78143e-05
20 *436:19 0.00122438
21 *436:20 0.00121818
22 *436:21 9.85024e-05
23 *436:22 9.85024e-05
24 *436:24 0.00293245
25 *436:25 9.75418e-05
26 *436:26 0.00572283
27 *436:27 0.00274479
28 *436:28 6.37471e-05
29 *436:29 8.40938e-05
30 *436:30 5.90316e-05
31 *436:31 7.70205e-05
32 *436:32 2.82932e-05
33 *436:33 3.29214e-05
34 *436:34 4.20032e-05
35 *436:35 0.00012697
36 *436:36 0.000688905
37 *436:37 9.75418e-05
38 *436:38 6.54936e-05
39 *436:39 0.000247304
40 *436:40 0.000692922
41 *436:41 1.79016e-05
42 *436:42 0.000243287
43 *436:7 *417:9 2.187e-05
44 *436:8 *417:8 2.187e-05
45 *436:9 *417:7 3.92e-06
46 *436:10 *417:6 3.92e-06
47 *436:11 *417:13 4.36e-06
48 *436:12 *417:12 4.36e-06
49 *436:11 *417:11 0.00016357
50 *436:12 *417:10 0.00016357
51 *436:13 *417:9 0.00019434
52 *436:14 *417:8 0.00019434
53 *436:15 *417:4 1.461e-05
54 *436:16 *417:3 1.461e-05
55 *436:16 *417:9 4.55e-06
56 *436:17 *417:8 4.54999656e-06
57 *436:19 *412:29 8.963e-05
58 *436:20 *412:30 8.963e-05
59 *436:21 *412:29 2.87e-06
60 *436:22 *412:30 2.87e-06
61 *436:11 *412:3 0.00017107
62 *436:12 *412:4 0.00017107
63 *436:13 *412:21 0.00019503
64 *436:14 *412:22 0.00019503
65 *436:14 *412:21 1.61e-06
66 *436:34 *412:22 1.61e-06
67 *436:33 *412:21 4.69e-06
68 *436:32 *412:22 4.69e-06
69 *436:21 *412:9 5.19e-06
70 *436:22 *412:10 5.19e-06
71 *436:15 *412:11 1.668e-05
72 *436:16 *412:12 1.668e-05
73 *436:16 *412:11 5.19e-06
74 *436:17 *412:12 5.19e-06
75 *436:30 *412:21 3.81e-06
76 *436:28 *412:22 3.81e-06
77 *436:27 *412:19 6.37e-06
78 *436:26 *412:20 6.37e-06
79 *436:27 *412:21 0.00017757
80 *436:26 *412:22 0.000177569996

*RES
1 *436:10 *1028:A 8.75985
2 *436:10 *436:9 0.731467
3 *436:37 *436:9 8.75985
4 *436:25 *436:37 6.32754
5 *436:24 *436:25 8.75985
6 *436:31 *1025:A 8.75985
7 *436:24 *436:26 199.275
8 *436:26 *436:31 5.57122
9 *436:26 *436:27 232.705887
10 *436:27 *436:28 1.11495
11 *436:8 *1015:A0 8.75985
12 *436:28 *436:30 4.18285
13 *436:8 *436:7 4.41011
14 *436:32 *1029:A 8.75985
15 *436:29 *436:30 8.75985
16 *436:38 *436:7 8.75985
17 *436:32 *436:33 2.48912
18 *436:29 *436:35 3.7319
19 *436:35 *436:38 2.35419
20 *436:33 *436:34 1.11495
21 *436:14 *436:35 8.75985
22 *436:34 *436:14 2.09853
23 *436:14 *436:13 210.719
24 *436:17 *436:13 1.11495
25 *436:16 *1020:B 8.75985
26 *436:17 *436:16 5.59963
27 *436:16 *436:15 20.8255
28 *436:15 *436:12 1.11495
29 *436:12 *436:11 188.505
30 *436:22 *436:11 1.11495
31 *436:22 *436:21 7.0022
32 *436:21 *436:20 1.11495
33 *436:18 *1038:A 8.75985
34 *436:20 *436:19 101.496
35 *436:19 *436:18 0.695959
36 *436:36 *436:19 8.75985
37 *436:36 *436:40 47.8223
38 *436:39 *436:40 1.02263
39 *436:39 *436:42 16.9267
40 *436:41 *436:42 8.75985
41 *436:41 *939:Y 8.75985
42 *436:23 *436:41 1.01908
*END

*D_NET *437 0.0291946

*CONN
*I *940:Y O *C 268.965 911.855 *L 0 *D CLKINVX6
*I *939:A I *C 268.1 607.335 *L 0.00241 *D CLKINVX6

*CAP
1 *940:Y 2.27463e-05
2 *939:A 2.27463e-05
3 *437:2 0.0107636
4 *437:3 0.0144726
5 *437:4 0.0037315
6 *437:5 9.31935e-05
7 *437:6 8.83351e-05

*RES
1 *437:6 *940:Y 8.76531
2 *437:5 *437:6 6.05538
3 *437:4 *437:5 1.07918
4 *437:3 *437:4 283.2
5 *437:2 *437:3 785.832336
6 *939:A *437:2 8.76531
*END

*D_NET *438 0.0201238

*CONN
*I *941:Y O *C 268.75 1128.775 *L 0 *D INVX4
*I *940:A I *C 268.1 911.715 *L 0.00241 *D CLKINVX6

*CAP
1 *941:Y 2.2645e-05
2 *940:A 2.2645e-05
3 *438:2 0.000407317
4 *438:3 0.000402611
5 *438:4 0.00963193
6 *438:5 0.00963664

*RES
1 *438:4 *940:A 8.76499
2 *438:4 *438:5 735.495911
3 *438:3 *941:Y 8.76499
4 *438:2 *438:5 1.07739
5 *438:2 *438:3 28.8313
*END

*D_NET *439 0.0202019

*CONN
*I *942:Y O *C 268.75 1345.785 *L 0 *D INVX4
*I *941:A I *C 268.585 1128.655 *L 0.00161 *D INVX4

*CAP
1 *942:Y 2.2696e-05
2 *941:A 2.2696e-05
3 *439:2 0.00882159
4 *439:3 0.00885347
5 *439:4 0.00125666
6 *439:5 0.00122477

*RES
1 *439:5 *942:Y 8.76361
2 *439:4 *439:5 91.8587
3 *439:3 *439:4 3.22599
4 *439:2 *439:3 673.308167
5 *941:A *439:2 8.76361
*END

*D_NET *440 0.0202233

*CONN
*I *943:Y O *C 268.53 1563.47 *L 0 *D INVX3
*I *942:A I *C 268.585 1345.905 *L 0.00161 *D INVX4

*CAP
1 *943:Y 2.26906e-05
2 *942:A 2.26906e-05
3 *440:2 0.00780818
4 *440:3 0.00782645
5 *440:4 0.00211846
6 *440:5 0.00210485
7 *440:6 0.000162297
8 *440:7 0.00015764

*RES
1 *440:7 *943:Y 8.76239
2 *440:6 *440:7 10.0622
3 *440:5 *440:6 1.07257
4 *440:4 *440:5 158.896
5 *440:3 *440:4 2.15424
6 *440:2 *440:3 595.696899
7 *942:A *440:2 8.76239
*END

*D_NET *441 0.020138

*CONN
*I *944:Y O *C 267.75 1780.125 *L 0 *D INVX4
*I *943:A I *C 267.9 1562.845 *L 0.0012 *D INVX3

*CAP
1 *944:Y 2.26545e-05
2 *943:A 1.97462e-05
3 *441:2 3.26042e-05
4 *441:3 0.01003152
5 *441:4 0.01003152

*RES
1 *441:4 *944:Y 8.75885
2 *441:3 *441:4 767.406555
3 *441:2 *943:A 1.2061
4 *441:2 *441:3 8.75885
*END

*D_NET *442 0.0236902

*CONN
*I *1035:B I *C 1389.5649 248.17 *L 0.000212 *D NAND2BXL
*I *1033:AN I *C 1390.74 247.78 *L 0.00021 *D NAND2BXL
*I *945:Y O *C 1389.55 478.975 *L 0 *D INVX4

*CAP
1 *1035:B 2.26923e-05
2 *1033:AN 2.26923e-05
3 *945:Y 2.26923e-05
4 *442:3 0.0112665
5 *442:4 0.01135222
6 *442:5 0.000108265
7 *442:6 4.19202e-05
8 *442:7 7.91633e-05
9 *442:8 0.00028963
10 *442:9 0.000259143
11 *442:10 7.31004e-05
12 *442:11 7.91633e-05
13 *442:12 7.31004e-05

*RES
1 *442:10 *1033:AN 8.76243
2 *442:10 *442:12 4.84935
3 *442:11 *442:12 8.76243
4 *442:7 *442:11 3.73304
5 *442:6 *1035:B 8.76243
6 *442:8 *442:7 8.76243
7 *442:6 *442:8 3.9491
8 *442:8 *442:9 17.3688
9 *442:5 *945:Y 8.76243
10 *442:3 *442:9 1.0803
11 *442:4 *442:5 7.67013
12 *442:3 *442:4 786.650574
*END

*D_NET *443 0.0299323

*CONN
*I *946:Y O *C 1303.965 707.705 *L 0 *D CLKINVX6
*I *945:A I *C 1389.385 478.855 *L 0.00161 *D INVX4

*CAP
1 *946:Y 2.26559e-05
2 *945:A 2.26559e-05
3 *443:2 0.00425931
4 *443:3 0.00228825
5 *443:4 0.00228825
6 *443:5 0.000413409
7 *443:6 0.00043168
8 *443:7 0.00798255
9 *443:8 0.00425931
10 *443:9 0.00796428

*RES
1 *443:5 *945:A 8.75676
2 *443:5 *443:6 29.7748
3 *443:6 *443:7 2.16376
4 *443:7 *443:9 606.000854
5 *443:4 *946:Y 8.75676
6 *443:8 *443:9 8.75676
7 *443:3 *443:4 173.526
8 *443:2 *443:8 256.461
9 *443:2 *443:3 8.75676
*END

*D_NET *444 0.0222566

*CONN
*I *947:Y O *C 1089.15 708.115 *L 0 *D INVX4
*I *946:A I *C 1303.1 707.845 *L 0.00241 *D CLKINVX6

*CAP
1 *947:Y 2.27299e-05
2 *946:A 0.000168235
3 *444:2 3.46756e-05
4 *444:3 0.01087304
5 *444:4 3.46756e-05
6 *444:5 3.45097e-05
7 *444:6 0.01087304
8 *444:7 0.000181342
9 *444:8 3.45097e-05

*RES
1 *444:7 *946:A 10.1872
2 *444:8 *444:7 8.75965
3 *444:5 *444:8 2.02146
4 *444:6 *444:5 8.75965
5 *444:3 *444:6 748.464294
6 *444:4 *947:Y 8.75965
7 *444:2 *444:3 8.75965
8 *444:2 *444:4 2.02146
*END

*D_NET *445 0.0193165

*CONN
*I *948:Y O *C 894.55 706.245 *L 0 *D INVX4
*I *947:A I *C 1088.985 707.995 *L 0.00161 *D INVX4

*CAP
1 *948:Y 2.26117e-05
2 *947:A 2.26117e-05
3 *445:2 2.82303e-05
4 *445:3 2.82303e-05
5 *445:4 0.00898094
6 *445:5 4.61826e-05
7 *445:6 4.61826e-05
8 *445:7 0.00349165
9 *445:8 0.00551122
10 *445:9 0.000179386
11 *445:10 0.000175412
12 *445:10 *154:2 1.029e-05
13 *445:9 *154:3 1.029e-05
14 *445:8 *154:2 0.00024065
15 *445:4 *154:3 0.00024065
16 *445:4 *154:3 0.00014102
17 *445:7 *154:4 0.000141019996

*RES
1 *445:2 *947:A 8.76121
2 *445:3 *445:2 1.77115
3 *445:10 *445:3 8.76121
4 *445:9 *445:10 12.7952
5 *445:8 *445:9 1.02739
6 *445:4 *445:8 413.075439
7 *445:7 *445:4 262.887
8 *445:6 *445:7 8.76121
9 *445:5 *445:6 2.69139
10 *948:Y *445:5 8.76121
*END

*D_NET *446 0.0246745

*CONN
*I *949:Y O *C 660.15 708.115 *L 0 *D INVX4
*I *948:A I *C 894.385 706.365 *L 0.00161 *D INVX4

*CAP
1 *949:Y 2.27401e-05
2 *948:A 2.27401e-05
3 *446:2 0.01221536
4 *446:4 7.92176e-05
5 *446:5 0.0116657
6 *446:6 7.92176e-05
7 *446:7 1.09973e-05
8 *446:8 0.000567571
9 *446:9 1.09973e-05

*RES
1 *446:6 *949:Y 8.76243
2 *446:4 *446:6 5.37749
3 *446:5 *446:4 8.76243
4 *446:9 *948:A 8.76243
5 *446:2 *446:8 40.2832
6 *446:5 *446:2 786.650574
7 *446:7 *446:9 0.156043
8 *446:7 *446:8 8.76243
9 *446:3 *446:7 0.780217
*END

*D_NET *447 0.0209835

*CONN
*I *950:Y O *C 445.55 708.115 *L 0 *D INVX4
*I *949:A I *C 659.985 707.995 *L 0.00161 *D INVX4

*CAP
1 *950:Y 0.000435745
2 *949:A 9.93409e-06
3 *447:2 0.0098641
4 *447:5 0.000448539
5 *447:6 1.79115e-05
6 *447:7 0.00341417
7 *447:8 0.00015142
8 *447:9 1.79115e-05
9 *447:10 0.00646785
10 *447:11 1.35465e-05
11 *447:12 0.000142389

*RES
1 *447:11 *949:A 0.600081
2 *447:11 *447:12 0.342903
3 *447:8 *447:12 8.38684
4 *447:9 *447:8 8.75832
5 *447:4 *447:9 1.02157
6 *447:10 *447:9 8.75832
7 *447:2 *447:10 468.177155
8 *447:7 *447:2 246.89
9 *950:Y *447:5 26.3678
10 *447:6 *447:7 8.75832
11 *447:6 *447:5 8.75832
12 *447:3 *447:6 1.02157
*END

*D_NET *448 0.0337471

*CONN
*I *1010:A I *C 250.415 708.075 *L 0.000211 *D XNOR2X1
*I *951:Y O *C 274.165 836.615 *L 0 *D CLKINVX6
*I *950:A I *C 445.385 707.995 *L 0.00161 *D INVX4

*CAP
1 *1010:A 2.26222e-05
2 *951:Y 2.26222e-05
3 *950:A 2.26222e-05
4 *448:3 0.000111797
5 *448:4 0.000107127
6 *448:5 0.000827972
7 *448:6 0.000827972
8 *448:7 1.95573e-05
9 *448:8 1.95573e-05
10 *448:9 0.00374667
11 *448:10 0.00375134
12 *448:11 0.00114965
13 *448:12 0.00114965
14 *448:14 0.00122028
15 *448:15 5.45852e-05
16 *448:16 0.00956481
17 *448:17 0.00122028
18 *448:18 0.000184334
19 *448:19 0.000184334
20 *448:20 1.12381e-05
21 *448:21 1.12381e-05
22 *448:22 0.00951723

*RES
1 *448:19 *951:Y 8.76392
2 *448:18 *448:19 12.0701
3 *448:17 *448:18 8.76392
4 *448:14 *448:17 71.2869
5 *448:9 *448:14 8.76392
6 *448:10 *448:9 294.216
7 *448:5 *448:10 1.11255
8 *448:6 *448:5 63.793
9 *448:6 *448:11 1.11255
10 *448:12 *448:11 88.5419
11 *448:12 *448:3 1.11255
12 *448:8 *1010:A 8.76392
13 *448:4 *448:3 12.9412
14 *448:8 *448:7 0.7347
15 *448:15 *448:4 8.76392
16 *448:16 *448:7 8.76392
17 *448:15 *448:16 2.81285
18 *448:16 *448:22 687.847412
19 *448:21 *448:22 8.76392
20 *448:20 *950:A 8.76392
21 *448:20 *448:21 0.178427
22 *448:13 *448:20 0.755692
*END

*D_NET *449 0.0197754

*CONN
*I *952:Y O *C 273.95 1050.115 *L 0 *D INVX4
*I *951:A I *C 273.3 836.475 *L 0.00241 *D CLKINVX6

*CAP
1 *952:Y 2.26771e-05
2 *951:A 2.26771e-05
3 *449:2 0.00977724
4 *449:3 0.00977262
5 *449:4 8.77244e-05
6 *449:5 9.24985e-05

*RES
1 *449:4 *951:A 8.75599
2 *449:4 *449:5 6.03469
3 *449:3 *952:Y 8.75599
4 *449:2 *449:5 1.08169
5 *449:2 *449:3 746.206055
*END

*D_NET *450 0.0199179

*CONN
*I *953:Y O *C 273.73 1263.35 *L 0 *D INVX3
*I *952:A I *C 273.785 1049.995 *L 0.00161 *D INVX4

*CAP
1 *953:Y 2.27285e-05
2 *952:A 2.27285e-05
3 *450:2 0.000272743
4 *450:3 0.000291067
5 *450:4 0.00930947
6 *450:5 0.00929583
7 *450:6 0.000353997
8 *450:7 0.000349309

*RES
1 *450:7 *953:Y 8.75641
2 *450:6 *450:7 24.808
3 *450:5 *450:6 1.07155
4 *450:4 *450:5 709.345276
5 *450:3 *450:4 2.15393
6 *450:2 *450:3 18.9524
7 *952:A *450:2 8.75641
*END

*D_NET *451 0.00798897

*CONN
*I *954:Y O *C 273.53 1349.34 *L 0 *D INVX2
*I *953:A I *C 273.1 1263.975 *L 0.0012 *D INVX3

*CAP
1 *954:Y 2.26649e-05
2 *953:A 2.26649e-05
3 *451:2 0.00360929
4 *451:3 0.00361398
5 *451:4 0.000362528
6 *451:5 0.000357841

*RES
1 *451:5 *954:Y 8.76188
2 *451:4 *451:5 25.4781
3 *451:3 *451:4 1.07536
4 *451:2 *451:3 274.220795
5 *953:A *451:2 8.76188
*END

*D_NET *452 0.031719

*CONN
*I *955:Y O *C 273.765 1689.245 *L 0 *D CLKINVX6
*I *954:A I *C 273.1 1349.475 *L 0.000801 *D INVX2

*CAP
1 *955:Y 2.27857e-05
2 *954:A 1.41829e-05
3 *452:2 3.0691e-05
4 *452:3 1.74381e-05
5 *452:4 2.20882e-05
6 *452:5 0.00981251
7 *452:6 0.01523737
8 *452:7 0.00544765
9 *452:7 *434:14 2.87e-06
10 *452:6 *434:15 2.87e-06
11 *452:7 *434:16 6.54e-06
12 *452:6 *434:17 6.54e-06
13 *452:7 *434:18 1.166e-05
14 *452:6 *434:19 1.166e-05
15 *452:6 *434:18 0.00053611
16 *452:5 *434:19 0.00053610998

*RES
1 *452:7 *955:Y 8.76373
2 *452:6 *452:7 414.308
3 *452:5 *452:6 786.766541
4 *452:4 *452:5 1.08046
5 *452:3 *452:4 0.672286
6 *452:2 *452:3 8.76373
7 *954:A *452:2 1.29655
*END

*D_NET *453 0.00815295

*CONN
*I *956:Y O *C 272.93 1776.84 *L 0 *D INVX2
*I *955:A I *C 272.9 1689.385 *L 0.00241 *D CLKINVX6

*CAP
1 *956:Y 2.26656e-05
2 *955:A 2.26656e-05
3 *453:2 0.00403638
4 *453:3 0.0040317
5 *453:4 1.74303e-05
6 *453:5 2.21112e-05

*RES
1 *453:4 *955:A 8.76313
2 *453:4 *453:5 0.670122
3 *453:3 *956:Y 8.76313
4 *453:2 *453:5 1.07782
5 *453:2 *453:3 307.112701
*END

*D_NET *454 0.000183579

*CONN
*I *999:Q O *C 273.1 1776.975 *L 0 *D DFFQXL
*I *956:A I *C 272.5 1776.975 *L 0.000801 *D INVX2

*CAP
1 *999:Q 2.26699e-05
2 *956:A 2.26699e-05
3 *454:2 1.75695e-05
4 *454:3 4.94796e-05
5 *454:4 1.96399e-05
6 *454:5 5.15499463e-05

*RES
1 *454:4 *999:Q 8.76079178
2 *454:4 *454:5 0.75903
3 *454:3 *454:5 3.33436
4 *454:2 *454:3 0.695265
5 *956:A *454:2 8.76079178
*END

*D_NET *455 0.000207902

*CONN
*I *1001:Q O *C 267.94 1780.33 *L 0 *D DFFHQX1
*I *944:A I *C 267.585 1780.245 *L 0.00161 *D INVX4

*CAP
1 *1001:Q 2.26706e-05
2 *944:A 2.26706e-05
3 *455:2 1.32004e-05
4 *455:3 7.23402e-05
5 *455:4 7.702e-05

*RES
1 *455:4 *1001:Q 8.76079178
2 *455:3 *455:4 5.55731
3 *455:2 *455:3 0.346229
4 *944:A *455:2 8.76079178
*END

*D_NET *456 0.00015172

*CONN
*I *1012:Q O *C 259.74 1780.33 *L 0 *D DFFHQX1
*I *936:A I *C 259.3 1780.395 *L 0.000395 *D INVX1

*CAP
1 *1012:Q 2.26702e-05
2 *936:A 2.26702e-05
3 *456:2 4.425e-05
4 *456:3 2.59599e-05
5 *456:4 3.61697e-05

*RES
1 *456:3 *936:A 8.76079178
2 *456:4 *1012:Q 8.76079178
3 *456:2 *456:3 1.38478
4 *456:2 *456:4 2.22295
*END

*D_NET *457 0.000887953

*CONN
*I *1031:B I *C 280.775 1775.3051 *L 0.000392 *D NOR2X1
*I *1030:Q O *C 275.94 1774.95 *L 0 *D DFFHQX1
*I *938:A I *C 275.3 1771.655 *L 0.00161 *D CLKINVX4

*CAP
1 *1031:B 2.26715e-05
2 *1030:Q 2.26715e-05
3 *938:A 2.26715e-05
4 *457:3 0.000108219
5 *457:4 0.000107421
6 *457:6 8.08393e-05
7 *457:7 9.91303e-05
8 *457:8 2.59575e-05
9 *457:9 0.00019024
10 *457:10 1.78904e-05
11 *457:11 0.00019024

*RES
1 *457:6 *938:A 8.76084
2 *457:6 *457:7 5.34706
3 *457:7 *457:4 2.14577
4 *457:4 *457:3 6.03472
5 *457:3 *1030:Q 8.76084
6 *457:3 *457:8 1.34289
7 *457:9 *457:8 8.76084
8 *457:9 *457:11 12.6484385
9 *457:10 *1031:B 8.76084
10 *457:10 *457:11 8.76084
11 *457:5 *457:10 1.01344
*END

*D_NET *458 2.72e-06

*CONN
*I *1031:Y O *C 280.915 1774.95 *L 0 *D NOR2X1
*I *620:A I *C 280.1 1773.365 *L 0.00021 *D BUFX2

*CAP
1 *620:A 1.36e-06
2 *458:2 1.36e-06

*RES
1 *458:2 *1031:Y 8.76079178
2 *620:A *458:2 0.107344
*END

*D_NET *459 0.0002118

*CONN
*I *1034:Y O *C 259.92 1393.285 *L 0 *D NAND2BX1
*I *919:A I *C 260.1 1395.265 *L 0.00241 *D CLKINVX6

*CAP
1 *1034:Y 2.26696e-05
2 *919:A 2.26696e-05
3 *459:2 7.429e-05
4 *459:3 6.96105e-05
5 *459:4 2.25608e-05

*RES
1 *459:4 *919:A 8.76079178
2 *459:2 *459:4 1.07625
3 *459:3 *459:2 4.8988
4 *1034:Y *459:3 8.76079178
*END

*D_NET *460 0.00034484

*CONN
*I *1035:Y O *C 1389.52 247.68 *L 0 *D NAND2BXL
*I *910:A I *C 1387.9449 249.76 *L 0.000389 *D BUFX3

*CAP
1 *1035:Y 6.886e-05
2 *910:A 2.26705e-05
3 *460:2 8.171e-05
4 *460:3 8.58e-05
5 *460:4 8.58e-05

*RES
1 *460:4 *910:A 8.76079178
2 *460:3 *460:4 5.53311
3 *460:2 *460:3 8.76079178
4 *460:2 *1035:Y 4.39069
*END

*D_NET *461 3.96e-05

*CONN
*I *1037:Y O *C 258.755 995.36 *L 0 *D NAND2X1
*I *914:A I *C 259.1 995.315 *L 0.00161 *D CLKINVX4

*CAP
1 *1037:Y 1.98e-05
2 *914:A 1.98e-05

*RES
1 *1037:Y *914:A 1.20834
*END

*D_NET *462 0.00026346

*CONN
*I *1036:Y O *C 259.12 1382.235 *L 0 *D NAND2BX1
*I *926:A I *C 258.585 1381.735 *L 0.00161 *D INVX4

*CAP
1 *1036:Y 2.71303e-05
2 *926:A 2.26701e-05
3 *462:2 1.99e-05
4 *462:3 6.542e-05
5 *462:4 6.50506e-05
6 *462:5 4.37601e-05
7 *462:6 1.95297e-05

*RES
1 *462:5 *1036:Y 1.20833
2 *462:6 *462:5 8.76079178
3 *462:4 *462:6 0.731626
4 *462:3 *462:4 4.30473
5 *462:2 *462:3 0.853808
6 *926:A *462:2 8.76079178
*END

*D_NET *463 0.0126048

*CONN
*I *1038:Y O *C 250.13 607.2 *L 0 *D INVX2
*I *1027:A I *C 249.37 644.81 *L 0.000212 *D NOR2XL
*I *1023:A I *C 250.7 701.005 *L 0.000392 *D NOR2X1
*I *1022:A I *C 249.97 579.83 *L 0.000212 *D NOR2XL
*I *1021:A I *C 249.9 578.075 *L 0.00039 *D NAND2X1

*CAP
1 *1038:Y 3.24257e-05
2 *1027:A 2.2678e-05
3 *1023:A 2.2678e-05
4 *1022:A 2.2678e-05
5 *1021:A 2.2678e-05
6 *463:5 0.00113558
7 *463:6 0.00113558
8 *463:7 0.000769347
9 *463:8 0.000774033
10 *463:9 8.16908e-05
11 *463:10 8.16908e-05
12 *463:11 0.00163752
13 *463:12 0.00164221
14 *463:13 0.00141759
15 *463:14 0.00141759
16 *463:15 7.8809e-05
17 *463:16 5.01922e-05
18 *463:17 7.2795e-05
19 *463:18 3.31524e-05
20 *463:19 3.78133e-05
21 *463:20 0.000168519
22 *463:21 0.000243118
23 *463:22 9.08121e-05
24 *463:23 6.81592e-05
25 *463:24 7.8809e-05
26 *463:25 6.81592e-05
27 *463:26 2.25527e-05
28 *463:7 *408:3 5.609e-05
29 *463:8 *408:4 5.609e-05
30 *463:9 *408:3 3.882e-05
31 *463:10 *408:4 3.882e-05
32 *463:11 *408:3 0.00012474
33 *463:12 *408:4 0.00012474
34 *463:13 *408:3 0.00011231
35 *463:14 *408:4 0.000112309986
36 *463:11 *412:23 3.92e-06
37 *463:12 *412:24 3.92e-06
38 *463:22 *412:23 1.398e-05
39 *463:21 *412:24 1.398e-05
40 *463:21 *412:25 3.92e-06
41 *463:20 *412:26 3.92e-06
42 *463:13 *412:27 4.31e-06
43 *463:14 *412:28 4.31e-06
44 *463:19 *412:29 7.83e-06
45 *463:18 *412:30 7.83e-06
46 *463:21 *412:5 7.18e-06
47 *463:20 *412:6 7.18e-06
48 *463:13 *412:31 2.06e-06
49 *463:14 *412:32 2.06e-06
50 *463:13 *412:7 0.00010987
51 *463:14 *412:8 0.00010987
52 *463:19 *412:7 4.31e-06
53 *463:18 *412:8 4.31e-06
54 *463:21 *412:13 5.16e-06
55 *463:20 *412:14 5.16e-06
56 *463:5 *412:29 0.00019352
57 *463:6 *412:30 0.000193519999

*RES
1 *463:7 *1023:A 8.76168
2 *463:8 *463:7 60.5036
3 *463:26 *463:8 1.07643
4 *463:25 *463:26 8.76168
5 *463:23 *463:25 2.97063
6 *463:11 *463:23 8.76168
7 *463:12 *463:11 136.715576
8 *463:22 *463:12 1.11398
9 *463:21 *1027:A 8.76168
10 *463:21 *463:22 6.97179
11 *463:20 *463:21 12.1433
12 *463:20 *463:13 1.11398
13 *463:14 *463:13 125.511
14 *463:19 *463:14 1.11398
15 *463:10 *1021:A 8.76168
16 *463:18 *463:19 4.13259
17 *463:9 *1022:A 8.76168
18 *463:10 *463:9 7.61014
19 *463:17 *463:18 8.76168
20 *463:17 *1038:Y 1.88168
21 *463:24 *463:9 8.76168
22 *463:16 *463:17 1.88168
23 *463:15 *463:24 4.36832
24 *463:5 *463:16 8.76168
25 *463:6 *463:15 8.76168
26 *463:6 *463:5 98.7107
*END

*D_NET *464 0.00027179

*CONN
*I *1032:Y O *C 258.325 993.315 *L 0 *D NOR2XL
*I *912:A I *C 257.1 993.795 *L 0.0012 *D INVX3

*CAP
1 *1032:Y 2.26698e-05
2 *912:A 2.26698e-05
3 *464:2 2.41601e-05
4 *464:3 2.41601e-05
5 *464:5 1.78896e-05
6 *464:6 8.012e-05
7 *464:7 8.012e-05

*RES
1 *464:3 *1032:Y 8.76079178
2 *464:3 *464:2 1.58223
3 *464:7 *464:2 8.76079178
4 *464:6 *464:7 4.23068
5 *464:5 *912:A 8.76079178
6 *464:5 *464:6 8.76079178
7 *464:4 *464:5 1.0185
*END

*D_NET *465 4.578e-05

*CONN
*I *1021:Y O *C 250.355 578.12 *L 0 *D NAND2X1
*I *649:A I *C 250.7 578.075 *L 0.00161 *D CLKINVX4

*CAP
1 *1021:Y 2.289e-05
2 *649:A 2.289e-05

*RES
1 *1021:Y *649:A 1.20834
*END

*D_NET *466 0.00025544

*CONN
*I *1018:Y O *C 263.14 1770.0699 *L 0 *D AOI21XL
*I *607:A I *C 263.7 1768.235 *L 0.00021 *D BUFX2

*CAP
1 *1018:Y 0.00012772
2 *607:A 0.00012772

*RES
1 *1018:Y *607:A 15.1333
*END

*D_NET *467 0.0062282

*CONN
*I *1026:Y O *C 1325.74 249.655 *L 0 *D AND2X1
*I *1016:AN I *C 1266.9399 251.2 *L 0.00021 *D NAND2BXL
*I *1011:A1N I *C 1267.1 249.565 *L 0.00021 *D OAI2BB1X1

*CAP
1 *1026:Y 2.26547e-05
2 *1016:AN 2.26547e-05
3 *1011:A1N 2.26547e-05
4 *467:4 5.68526e-05
5 *467:5 5.21803e-05
6 *467:6 3.52973e-05
7 *467:7 0.00256909
8 *467:8 7.36571e-05
9 *467:9 4.99423e-05
10 *467:10 0.00257309
11 *467:11 3.36875e-05
12 *467:12 1.79039e-05
13 *467:13 2.96827e-05
14 *467:13 *430:7 2.45e-06
15 *467:11 *430:8 2.45e-06
16 *467:10 *430:7 0.00016559
17 *467:7 *430:8 0.000165590002
18 *467:10 *407:9 0.00016638
19 *467:7 *407:10 0.000166379993

*RES
1 *467:5 *1016:AN 8.75951
2 *467:4 *467:5 2.67988
3 *467:4 *467:9 1.07653
4 *467:8 *1011:A1N 8.75951
5 *467:8 *467:9 2.67661
6 *467:6 *467:8 2.07781
7 *467:7 *467:6 8.75951
8 *467:7 *467:10 214.442871
9 *467:10 *467:11 1.06017
10 *467:11 *467:13 1.46919
11 *467:12 *467:13 8.75951
12 *467:12 *1026:Y 8.75951
13 *467:3 *467:12 1.05363
*END

*D_NET *468 0.000202249

*CONN
*I *1015:Y O *C 251.34 461.67 *L 0 *D AOI21XL
*I *637:A I *C 252.1 461.795 *L 0.00021 *D BUFX2

*CAP
1 *1015:Y 2.26699e-05
2 *637:A 2.26699e-05
3 *468:2 1.92297e-05
4 *468:3 1.92297e-05
5 *468:5 1.78901e-05
6 *468:6 5.028e-05
7 *468:7 5.028e-05

*RES
1 *468:3 *637:A 8.76079178
2 *468:3 *468:2 0.800337
3 *468:7 *468:2 8.76079178
4 *468:6 *468:7 2.82076
5 *468:5 *468:6 8.76079178
6 *468:5 *1015:Y 8.76079178
7 *468:4 *468:5 1.01823
*END

*D_NET *469 0.000432259

*CONN
*I *1024:Y O *C 1202.34 248.335 *L 0 *D NAND2XL
*I *882:A I *C 1202.3 251.655 *L 0.000801 *D INVX2

*CAP
1 *1024:Y 2.26685e-05
2 *882:A 2.26685e-05
3 *469:2 0.00019346
4 *469:3 0.00019346

*RES
1 *469:3 *882:A 8.76075
2 *469:2 *469:3 11.4189453
3 *1024:Y *469:2 8.76075
*END

*D_NET *470 0.000279939

*CONN
*I *1013:Y O *C 1260.92 251.795 *L 0 *D NOR2BX1
*I *841:A I *C 1259.385 251.505 *L 0.00161 *D INVX4

*CAP
1 *1013:Y 2.26695e-05
2 *841:A 2.26695e-05
3 *470:2 1.98702e-05
4 *470:3 1.98702e-05
5 *470:4 8.423e-05
6 *470:5 8.423e-05
7 *470:7 1.31997e-05
8 *470:8 1.31997e-05

*RES
1 *470:2 *1013:Y 8.76079178
2 *470:3 *470:2 0.734567
3 *470:4 *470:3 8.76079178
4 *470:5 *470:4 8.03465
5 *470:8 *470:5 8.76079178
6 *470:7 *841:A 8.76079178
7 *470:7 *470:8 0.335
8 *470:6 *470:7 0.52977
*END

*D_NET *471 0.000329298

*CONN
*I *1033:Y O *C 1390.3199 247.68 *L 0 *D NAND2BXL
*I *933:A I *C 1389.145 249.76 *L 0.000389 *D BUFX3

*CAP
1 *1033:Y 2.267e-05
2 *933:A 2.267e-05
3 *471:2 2.63998e-05
4 *471:3 2.63998e-05
5 *471:4 5.13892e-05
6 *471:5 5.13892e-05
7 *471:6 6.419e-05
8 *471:7 6.419e-05

*RES
1 *471:3 *1033:Y 8.76079178
2 *471:3 *471:2 1.39467
3 *471:7 *471:2 8.76079178
4 *471:4 *933:A 8.76079178
5 *471:6 *471:7 3.66869
6 *471:5 *471:4 4.638
7 *471:5 *471:6 8.76079178
*END

*D_NET *472 0.00463404

*CONN
*I *1010:Y O *C 250.14 707.735 *L 0 *D XNOR2X1
*I *879:A I *C 250.1 752.305 *L 0.0012 *D INVX3

*CAP
1 *1010:Y 1.15438e-05
2 *879:A 1.97996e-05
3 *472:2 0.000772399
4 *472:3 3.26479e-05
5 *472:4 0.000767718
6 *472:5 2.43743e-05
7 *472:6 4.42096e-05
8 *472:7 6.19006e-05
9 *472:8 4.42096e-05
10 *472:9 5.47706e-05
11 *472:10 2.25515e-05
12 *472:11 6.19006e-05
13 *472:12 0.00117109
14 *472:13 5.47706e-05
15 *472:14 0.00117109
16 *472:14 *408:3 8.787e-05
17 *472:12 *408:4 8.787e-05
18 *472:8 *408:3 1.442e-05
19 *472:6 *408:4 1.442e-05
20 *472:4 *408:15 5.437e-05
21 *472:2 *408:16 5.437e-05
22 *472:4 *408:3 2.87e-06
23 *472:2 *408:4 2.86999576e-06

*RES
1 *472:5 *1010:Y 0.593583
2 *472:6 *472:5 8.76139
3 *472:6 *472:8 3.04478
4 *472:7 *472:8 8.76139
5 *472:7 *472:11 2.35583
6 *472:12 *472:11 8.76139
7 *472:12 *472:14 93.2878265
8 *472:13 *472:14 8.76139
9 *472:3 *879:A 1.18859
10 *472:9 *472:13 2.37575
11 *472:4 *472:3 8.76139
12 *472:10 *472:9 8.76139
13 *472:2 *472:4 62.3062
14 *472:2 *472:10 1.11457
*END

*D_NET *473 0.00036624

*CONN
*I *1016:Y O *C 1266.52 251.1 *L 0 *D NAND2BXL
*I *899:A I *C 1262.77 251.46 *L 0.000389 *D BUFX4

*CAP
1 *1016:Y 0.00016988
2 *899:A 9.91131e-06
3 *473:2 0.00017321
4 *473:3 1.32389e-05

*RES
1 *473:2 *1016:Y 10.2706337
2 *473:2 *473:3 0.308106
3 *899:A *473:3 0.604146
*END

*D_NET *474 9.54e-06

*CONN
*I *1007:Y O *C 270.315 1771.53 *L 0 *D NOR2X1
*I *623:A I *C 272.1 1771.655 *L 0.00021 *D BUFX2

*CAP
1 *623:A 4.77e-06
2 *474:2 4.77e-06

*RES
1 *474:2 *1007:Y 8.76079178
2 *623:A *474:2 0.377643
*END

*D_NET *475 0.00034842

*CONN
*I *1011:Y O *C 1266.535 250.24 *L 0 *D OAI2BB1X1
*I *894:A I *C 1264.585 249.715 *L 0.00161 *D INVX4

*CAP
1 *1011:Y 8.02907e-05
2 *894:A 2.267e-05
3 *475:2 6.72197e-05
4 *475:3 2.17007e-05
5 *475:4 9.314e-05
6 *475:5 6.33994e-05

*RES
1 *475:4 *1011:Y 5.01791
2 *475:3 *894:A 8.76079178
3 *475:5 *475:4 8.76079178
4 *475:2 *475:3 1.03882
5 *475:2 *475:5 4.4467
*END

*D_NET *476 0.000215001

*CONN
*I *1014:Y O *C 1324.12 249.425 *L 0 *D NOR2BX1
*I *847:A I *C 1323.1 249.565 *L 0.000801 *D INVX2

*CAP
1 *1014:Y 2.26703e-05
2 *847:A 2.26703e-05
3 *476:2 6.729e-05
4 *476:3 2.17708e-05
5 *476:4 6.30607e-05
6 *476:5 1.75394e-05

*RES
1 *476:5 *1014:Y 8.76079178
2 *476:3 *847:A 8.76079178
3 *476:4 *476:5 0.697136
4 *476:2 *476:3 1.55201
5 *476:2 *476:4 4.45833
*END

*D_NET *477 0.00022472

*CONN
*I *1004:Y O *C 1263.135 250.24 *L 0 *D OAI2BB1X1
*I *784:A I *C 1261.9 249.565 *L 0.0012 *D INVX3

*CAP
1 *1004:Y 2.26698e-05
2 *784:A 2.26698e-05
3 *477:2 3.85499e-05
4 *477:3 4.254e-05
5 *477:6 1.78904e-05
6 *477:7 2.92603e-05
7 *477:8 3.32505e-05
8 *477:9 1.78904e-05

*RES
1 *477:5 *477:9 1.05205
2 *477:9 *1004:Y 8.76079178
3 *477:2 *477:9 8.76079178
4 *477:3 *477:2 2.21078
5 *477:3 *477:8 1.05887
6 *477:7 *477:8 1.47087
7 *477:6 *784:A 8.76079178
8 *477:6 *477:7 8.76079178
9 *477:4 *477:6 1.05205
*END

*D_NET *478 8.97604e-05

*CONN
*I *1003:Y O *C 274.915 1773.49 *L 0 *D NOR2X1
*I *598:A I *C 278.1 1773.365 *L 0.00021 *D BUFX2

*CAP
1 *1003:Y 2.95101e-05
2 *598:A 1.78903e-05
3 *478:2 4.236e-05

*RES
1 *478:2 *598:A 8.76079178
2 *1003:Y *478:2 1.81242
*END

*D_NET *479 0.000349023

*CONN
*I *1008:Y O *C 1262.54 248.17 *L 0 *D AOI21XL
*I *851:A I *C 1261.385 248.085 *L 0.00161 *D INVX4

*CAP
1 *1008:Y 2.26698e-05
2 *851:A 2.26698e-05
3 *479:2 3.352e-05
4 *479:3 0.00010086
5 *479:4 3.352e-05
6 *479:5 1.74602e-05
7 *479:6 0.00010086
8 *479:7 1.74602e-05

*RES
1 *479:7 *1008:Y 8.76079178
2 *479:5 *479:7 0.692458
3 *479:6 *479:5 8.76079178
4 *479:4 *851:A 8.76079178
5 *479:3 *479:6 6.60495
6 *479:2 *479:4 1.54907
7 *479:2 *479:3 8.76079178
*END

*D_NET *480 0.000247821

*CONN
*I *998:Y O *C 951.405 333.165 *L 0 *D AOI22XL
*I *638:A I *C 952.5 333.545 *L 0.00021 *D BUFX2

*CAP
1 *998:Y 2.26701e-05
2 *638:A 2.26701e-05
3 *480:2 4.979e-05
4 *480:3 4.95104e-05
5 *480:4 4.95104e-05
6 *480:5 4.27905e-05
7 *480:6 1.08803e-05

*RES
1 *480:6 *638:A 8.76079178
2 *480:5 *480:6 0.13515
3 *480:4 *480:5 3.23904
4 *480:3 *480:4 0.678154
5 *480:2 *480:3 3.23904
6 *998:Y *480:2 8.76079178
*END

*D_NET *481 0.00023519

*CONN
*I *997:Y O *C 1326.405 646.855 *L 0 *D AOI22XL
*I *636:A I *C 1327.5 646.475 *L 0.00021 *D BUFX2

*CAP
1 *997:Y 2.26696e-05
2 *636:A 2.26696e-05
3 *481:2 1.55305e-05
4 *481:3 1.55305e-05
5 *481:5 1.78901e-05
6 *481:6 7.045e-05
7 *481:7 7.045e-05

*RES
1 *481:2 *636:A 8.76079178
2 *481:3 *481:2 0.497687
3 *481:7 *481:3 8.76079178
4 *481:6 *481:7 5.4771
5 *481:5 *481:6 8.76079178
6 *481:5 *997:Y 8.76079178
7 *481:4 *481:5 0.215892
*END

*D_NET *482 0.0002217

*CONN
*I *994:Y O *C 1781.8051 1327.4351 *L 0 *D AOI22XL
*I *725:A I *C 1781.1 1325.535 *L 0.000801 *D INVX2

*CAP
1 *994:Y 9.83967e-06
2 *725:A 2.26705e-05
3 *482:2 5.882e-05
4 *482:3 6.35e-05
5 *482:4 2.25406e-05
6 *482:5 2.64697e-05
7 *482:6 1.78596e-05

*RES
1 *482:5 *994:Y 0.612651
2 *482:6 *482:5 8.76079178
3 *482:4 *482:6 0.670267
4 *482:3 *482:4 1.07144
5 *482:2 *482:3 5.42817
6 *725:A *482:2 8.76079178
*END

*D_NET *483 0.000298098

*CONN
*I *993:Y O *C 1327.005 582.825 *L 0 *D AOI22XL
*I *635:A I *C 1328.1 583.205 *L 0.00021 *D BUFX2

*CAP
1 *993:Y 2.26691e-05
2 *635:A 2.26691e-05
3 *483:2 2.84196e-05
4 *483:3 2.84196e-05
5 *483:4 1.953e-05
6 *483:5 7.843e-05
7 *483:6 1.953e-05
8 *483:7 7.843e-05

*RES
1 *483:2 *635:A 8.76079178
2 *483:3 *483:2 1.47515
3 *483:7 *483:3 8.76079178
4 *483:5 *483:7 4.26543
5 *483:6 *993:Y 8.76079178
6 *483:4 *483:5 8.76079178
7 *483:4 *483:6 0.734032
*END

*D_NET *484 0.00041114

*CONN
*I *992:Y O *C 1782.205 1139.335 *L 0 *D AOI22XL
*I *628:A I *C 1781.1 1137.245 *L 0.00021 *D BUFX2

*CAP
1 *992:Y 2.26703e-05
2 *628:A 9.911e-06
3 *484:2 2.06296e-05
4 *484:3 6.14397e-05
5 *484:4 3.14398e-05
6 *484:5 2.67601e-05
7 *484:6 6.35709e-05
8 *484:7 8.50203e-05
9 *484:8 8.97e-05

*RES
1 *484:5 *992:Y 8.76079178
2 *484:4 *484:5 1.34548
3 *484:4 *484:8 1.07104
4 *484:7 *484:8 4.88918
5 *484:6 *484:7 8.76079178
6 *484:3 *484:6 3.04334
7 *484:2 *484:3 1.00032
8 *628:A *484:2 0.608641
*END

*D_NET *485 0.000343159

*CONN
*I *991:Y O *C 1781.605 1081.1949 *L 0 *D AOI22XL
*I *641:A I *C 1782.3 1082.525 *L 0.00021 *D BUFX2

*CAP
1 *991:Y 2.26694e-05
2 *641:A 2.26694e-05
3 *485:2 8.433e-05
4 *485:3 8.433e-05
5 *485:5 5.39797e-05
6 *485:6 1.05993e-05
7 *485:7 5.39797e-05
8 *485:8 1.05993e-05

*RES
1 *485:3 *991:Y 8.76079178
2 *485:3 *485:2 5.74232
3 *485:5 *485:2 8.76079178
4 *485:8 *641:A 8.76079178
5 *485:5 *485:7 2.80873
6 *485:6 *485:8 0.124188
7 *485:6 *485:7 8.76079178
8 *485:4 *485:6 0.832687
*END

*D_NET *486 0.000515441

*CONN
*I *990:Y O *C 1782.205 1200.895 *L 0 *D AOI22XL
*I *640:A I *C 1782.1 1197.095 *L 0.00021 *D BUFX2

*CAP
1 *990:Y 2.26706e-05
2 *640:A 2.26706e-05
3 *486:2 5.3919e-05
4 *486:3 5.85995e-05
5 *486:4 4.04913e-05
6 *486:5 3.58108e-05
7 *486:6 0.00014064
8 *486:7 0.00014064

*RES
1 *486:5 *990:Y 8.76079178
2 *486:4 *486:5 2.02043
3 *486:4 *486:7 1.07224
4 *486:6 *486:7 8.11619
5 *486:3 *486:6 1.07237
6 *486:2 *486:3 3.06419
7 *640:A *486:2 8.76079178
*END

*D_NET *487 0.00030666

*CONN
*I *989:Y O *C 1782.205 1266.825 *L 0 *D AOI22XL
*I *639:A I *C 1781.5 1265.495 *L 0.00021 *D BUFX2

*CAP
1 *989:Y 2.26702e-05
2 *639:A 9.90932e-06
3 *487:2 1.25007e-05
4 *487:3 2.53503e-05
5 *487:4 3.56102e-05
6 *487:5 0.00010031
7 *487:6 0.00010031

*RES
1 *487:6 *989:Y 8.76079178
2 *487:5 *487:6 5.71344
3 *487:4 *487:5 8.76079178
4 *487:3 *487:4 1.21795
5 *487:2 *487:3 0.241558
6 *639:A *487:2 0.611181
*END

*D_NET *488 0.00423867

*CONN
*I *1005:Y O *C 251.54 579.885 *L 0 *D AND2X1
*I *875:A I *C 293.7 579.975 *L 0.0012 *D INVX3

*CAP
1 *1005:Y 0.000180329
2 *875:A 2.26827e-05
3 *488:4 0.000193195
4 *488:5 1.78906e-05
5 *488:6 0.00190334
6 *488:7 1.78906e-05
7 *488:8 0.00190334

*RES
1 *488:7 *875:A 8.76128
2 *488:3 *488:7 1.02229
3 *488:8 *488:7 8.76128
4 *488:6 *488:8 136.449478
5 *1005:Y *488:4 10.2708
6 *488:5 *488:6 8.76128
7 *488:5 *488:4 8.76128
8 *488:2 *488:5 1.01812
*END

*D_NET *489 0.00013616

*CONN
*I *988:Y O *C 1781.605 1447.135 *L 0 *D AOI22XL
*I *713:A I *C 1780.3 1446.5649 *L 0.000395 *D INVX1

*CAP
1 *489:2 6.808e-05
2 *489:3 6.808e-05

*RES
1 *489:3 *988:Y 8.76079178
2 *489:2 *489:3 5.35599
3 *713:A *489:2 8.76079178
*END

*D_NET *490 0.000253039

*CONN
*I *987:Y O *C 1393.005 1509.645 *L 0 *D AOI22XL
*I *794:A I *C 1392.9 1508.125 *L 0.000801 *D INVX2

*CAP
1 *987:Y 2.267e-05
2 *794:A 2.267e-05
3 *490:2 0.00010385
4 *490:3 0.00010385

*RES
1 *490:3 *987:Y 8.76079178
2 *490:2 *490:3 6.44052
3 *794:A *490:2 8.76079178
*END

*D_NET *491 0.0002492

*CONN
*I *986:Y O *C 1509.605 1328.385 *L 0 *D AOI22XL
*I *763:A I *C 1509.7 1326.865 *L 0.0012 *D INVX3

*CAP
1 *986:Y 2.26699e-05
2 *763:A 2.26699e-05
3 *491:2 7.597e-05
4 *491:3 7.1289e-05
5 *491:4 2.59597e-05
6 *491:5 3.06396e-05

*RES
1 *491:4 *763:A 8.76079178
2 *491:4 *491:5 1.34521
3 *491:3 *986:Y 8.76079178
4 *491:2 *491:5 1.07973
5 *491:2 *491:3 4.72743
*END

*D_NET *492 0.00031335

*CONN
*I *985:Y O *C 1780.605 831.535 *L 0 *D AOI22XL
*I *626:A I *C 1781.7 831.155 *L 0.00021 *D BUFX2

*CAP
1 *985:Y 2.26708e-05
2 *626:A 9.84059e-06
3 *492:2 1.98002e-05
4 *492:3 1.98002e-05
5 *492:5 1.78906e-05
6 *492:6 7.498e-05
7 *492:7 1.24297e-05
8 *492:8 2.53503e-05
9 *492:9 3.56096e-05
10 *492:10 7.498e-05

*RES
1 *626:A *492:7 0.615993
2 *492:7 *492:8 0.24343
3 *492:8 *492:9 1.22757
4 *492:3 *492:9 8.76079178
5 *492:3 *492:2 0.733096
6 *492:10 *492:2 8.76079178
7 *492:6 *492:10 7.64564
8 *492:5 *492:6 8.76079178
9 *492:5 *985:Y 8.76079178
10 *492:4 *492:5 1.01596
*END

*D_NET *493 0.000527384

*CONN
*I *984:Y O *C 1636.605 1448.085 *L 0 *D AOI22XL
*I *630:A I *C 1639.7 1448.465 *L 0.00021 *D BUFX2

*CAP
1 *984:Y 2.26704e-05
2 *630:A 2.26704e-05
3 *493:2 1.98006e-05
4 *493:3 1.98006e-05
5 *493:4 8.29999e-05
6 *493:5 7.82306e-05
7 *493:6 8.699e-05
8 *493:7 7.82306e-05
9 *493:8 3.24505e-05
10 *493:9 2.75405e-05
11 *493:10 2.84604e-05
12 *493:11 2.75405e-05

*RES
1 *493:11 *630:A 8.76079178
2 *493:9 *493:11 1.46913
3 *493:10 *493:9 8.76079178
4 *493:8 *493:10 1.41593
5 *493:7 *493:8 1.02572
6 *493:5 *493:7 5.15132
7 *493:5 *493:6 1.02572
8 *493:4 *493:6 4.95588
9 *493:2 *984:Y 8.76079178
10 *493:3 *493:4 8.76079178
11 *493:3 *493:2 0.73724
*END

*D_NET *494 0.000241711

*CONN
*I *983:Y O *C 1777.005 1019.635 *L 0 *D AOI22XL
*I *627:A I *C 1778.1 1019.255 *L 0.00021 *D BUFX2

*CAP
1 *983:Y 2.26702e-05
2 *627:A 2.26702e-05
3 *494:2 1.91798e-05
4 *494:3 1.91798e-05
5 *494:5 1.78905e-05
6 *494:6 7.006e-05
7 *494:7 7.006e-05

*RES
1 *494:3 *627:A 8.76079178
2 *494:3 *494:2 0.796326
3 *494:7 *494:2 8.76079178
4 *494:6 *494:7 4.22573
5 *494:5 *494:6 8.76079178
6 *494:5 *983:Y 8.76079178
7 *494:4 *494:5 1.01382
*END

*D_NET *495 0.000360739

*CONN
*I *982:Y O *C 1575.005 1385.575 *L 0 *D AOI22XL
*I *629:A I *C 1572.1 1385.1949 *L 0.00021 *D BUFX2

*CAP
1 *982:Y 2.26704e-05
2 *629:A 9.90992e-06
3 *495:2 9.94696e-05
4 *495:3 2.02602e-05
5 *495:4 0.00010197
6 *495:5 5.32295e-05
7 *495:6 5.32295e-05

*RES
1 *495:6 *982:Y 8.76079178
2 *495:5 *495:6 3.23904
3 *495:4 *495:5 8.76079178
4 *495:2 *495:4 5.39288
5 *495:2 *495:3 0.950726
6 *629:A *495:3 0.59915
*END

*D_NET *496 0.00022972

*CONN
*I *981:Y O *C 1781.005 893.095 *L 0 *D AOI22XL
*I *693:A I *C 1781.1 891.195 *L 0.000801 *D INVX2

*CAP
1 *981:Y 2.26703e-05
2 *693:A 2.04398e-05
3 *496:2 4.853e-05
4 *496:3 4.472e-05
5 *496:4 4.66802e-05
6 *496:5 4.66802e-05

*RES
1 *496:5 *981:Y 8.76079178
2 *496:4 *496:5 4.31957
3 *496:3 *496:4 8.76079178
4 *496:2 *693:A 1.21715
5 *496:2 *496:3 2.62091
*END

*D_NET *497 0.000297199

*CONN
*I *1002:Y O *C 250.52 333.875 *L 0 *D NOR2BX1
*I *829:A I *C 251.1 331.645 *L 0.0012 *D INVX3

*CAP
1 *1002:Y 2.267e-05
2 *829:A 3.96089e-05
3 *497:2 5.24592e-05
4 *497:3 9.123e-05
5 *497:4 9.123e-05

*RES
1 *497:4 *1002:Y 8.76079178
2 *497:3 *497:4 6.22196
3 *497:2 *829:A 2.41678
4 *497:2 *497:3 8.76079178
*END

*D_NET *498 0.00463

*CONN
*I *1000:Y O *C 251.74 519.63 *L 0 *D OA21X1
*I *816:A I *C 251.785 562.725 *L 0.00161 *D INVX4

*CAP
1 *1000:Y 2.26692e-05
2 *816:A 2.26692e-05
3 *498:2 0.00141561
4 *498:3 0.00142029
5 *498:4 0.000143232
6 *498:5 0.000138551
7 *498:6 6.14841e-05
8 *498:7 6.61653e-05
9 *498:8 4.74839e-05
10 *498:9 2.25608e-05
11 *498:10 4.74839e-05
12 *498:2 *410:6 0.00028173
13 *498:3 *410:7 0.00028173
14 *498:4 *410:6 7.89e-06
15 *498:5 *410:7 7.89000503e-06
16 *498:2 *146:13 0.00025664
17 *498:3 *146:12 0.00025664
18 *498:4 *146:2 3.859e-05
19 *498:5 *146:3 3.859e-05
20 *498:2 *146:7 9.42e-06
21 *498:3 *146:6 9.42e-06
22 *498:4 *146:7 8.24e-06
23 *498:5 *146:6 8.24e-06
24 *498:6 *146:13 8.4e-06
25 *498:7 *146:12 8.40001646e-06

*RES
1 *498:5 *1000:Y 8.76039
2 *498:5 *498:4 11.4266
3 *498:4 *498:3 1.07532
4 *498:3 *498:2 137.910385
5 *498:10 *498:2 8.76039
6 *498:8 *498:10 1.79711
7 *498:6 *816:A 8.76039
8 *498:9 *498:8 8.76039
9 *498:7 *498:6 4.215
10 *498:7 *498:9 1.07532
*END

*D_NET *499 0.00026861

*CONN
*I *980:Y O *C 1780.005 954.655 *L 0 *D AOI22XL
*I *625:A I *C 1781.1 954.275 *L 0.00021 *D BUFX2

*CAP
1 *980:Y 2.26703e-05
2 *625:A 9.90919e-06
3 *499:2 1.78602e-05
4 *499:3 1.78602e-05
5 *499:5 1.789e-05
6 *499:6 6.74e-05
7 *499:7 1.24999e-05
8 *499:8 1.24299e-05
9 *499:9 2.26898e-05
10 *499:10 6.74e-05

*RES
1 *625:A *499:7 0.615726
2 *499:7 *499:8 0.243296
3 *499:8 *499:9 0.613453
4 *499:3 *499:9 8.76079178
5 *499:3 *499:2 0.673876
6 *499:10 *499:2 8.76079178
7 *499:6 *499:10 6.66764
8 *499:5 *499:6 8.76079178
9 *499:5 *980:Y 8.76079178
10 *499:4 *499:5 1.01529
*END

*D_NET *500 0.00038804

*CONN
*I *979:Y O *C 1451.405 1266.825 *L 0 *D AOI22XL
*I *769:A I *C 1452.9 1265.3051 *L 0.000801 *D INVX2

*CAP
1 *979:Y 2.26707e-05
2 *769:A 2.10693e-05
3 *500:2 9.15399e-05
4 *500:3 7.65002e-05
5 *500:4 7.65002e-05
6 *500:5 9.976e-05

*RES
1 *500:4 *979:Y 8.76079178
2 *769:A *500:5 1.93541
3 *500:3 *500:4 4.70804
4 *500:2 *500:5 4.79373
5 *500:2 *500:3 8.76079178
*END

*D_NET *501 0.00024984

*CONN
*I *978:Y O *C 950.205 247.665 *L 0 *D AOI22XL
*I *645:A I *C 951.3 248.045 *L 0.00021 *D BUFX2

*CAP
1 *978:Y 2.26702e-05
2 *645:A 2.26702e-05
3 *501:2 3.61696e-05
4 *501:3 3.72699e-05
5 *501:4 6.45e-05
6 *501:5 5.60398e-05
7 *501:6 1.05202e-05

*RES
1 *501:6 *645:A 8.76079178
2 *501:5 *501:6 0.128466
3 *501:4 *501:5 4.45833
4 *501:3 *501:4 0.694329
5 *501:2 *501:3 2.22923
6 *978:Y *501:2 8.76079178
*END

*D_NET *502 0.000245212

*CONN
*I *977:Y O *C 584.605 640.965 *L 0 *D AOI22XL
*I *631:A I *C 585.7 641.345 *L 0.00021 *D BUFX2

*CAP
1 *977:Y 2.267e-05
2 *631:A 2.267e-05
3 *502:3 1.78905e-05
4 *502:4 7.189e-05
5 *502:5 1.91005e-05
6 *502:6 7.189e-05
7 *502:7 1.91005e-05

*RES
1 *502:7 *631:A 8.76079178
2 *502:5 *502:7 0.799267
3 *502:6 *502:5 8.76079178
4 *502:4 *502:6 4.26543
5 *502:3 *502:4 8.76079178
6 *502:3 *977:Y 8.76079178
7 *502:2 *502:3 1.02184
*END

*D_NET *503 0.00026838

*CONN
*I *976:Y O *C 1136.405 701.575 *L 0 *D AOI22XL
*I *701:A I *C 1136.3 703.095 *L 0.000395 *D INVX1

*CAP
1 *976:Y 2.267e-05
2 *701:A 2.267e-05
3 *503:2 8.93796e-05
4 *503:3 9.406e-05
5 *503:4 2.21404e-05
6 *503:5 1.746e-05

*RES
1 *503:5 *701:A 8.76079178
2 *503:4 *503:5 0.672539
3 *503:3 *503:4 1.07973
4 *503:2 *503:3 6.07825
5 *976:Y *503:2 8.76079178
*END

*D_NET *504 0.00019704

*CONN
*I *975:Y O *C 766.005 336.585 *L 0 *D AOI22XL
*I *642:A I *C 766.1 335.255 *L 0.00021 *D BUFX2

*CAP
1 *975:Y 2.26698e-05
2 *642:A 2.26698e-05
3 *504:2 4.825e-05
4 *504:3 4.35697e-05
5 *504:4 2.75997e-05
6 *504:5 3.228e-05

*RES
1 *504:4 *642:A 8.76079178
2 *504:4 *504:5 3.37914
3 *504:3 *975:Y 8.76079178
4 *504:2 *504:5 1.07973
5 *504:2 *504:3 2.71262
*END

*D_NET *505 0.000235508

*CONN
*I *974:Y O *C 1139.605 952.185 *L 0 *D AOI22XL
*I *633:A I *C 1138.5 952.565 *L 0.00021 *D BUFX2

*CAP
1 *974:Y 2.26694e-05
2 *633:A 2.26694e-05
3 *505:3 1.89498e-05
4 *505:4 6.719e-05
5 *505:5 1.89498e-05
6 *505:6 1.78897e-05
7 *505:7 6.719e-05

*RES
1 *505:5 *633:A 8.76079178
2 *505:3 *505:5 0.83389
3 *505:4 *505:3 8.76079178
4 *505:4 *505:7 3.55453
5 *505:6 *505:7 8.76079178
6 *505:6 *974:Y 8.76079178
7 *505:2 *505:6 1.02184
*END

*D_NET *506 0.00023961

*CONN
*I *973:Y O *C 1204.405 1078.725 *L 0 *D AOI22XL
*I *643:A I *C 1205.5 1079.105 *L 0.00021 *D BUFX2

*CAP
1 *973:Y 2.26699e-05
2 *643:A 2.26699e-05
3 *506:2 1.91502e-05
4 *506:3 1.91502e-05
5 *506:5 1.78902e-05
6 *506:6 6.904e-05
7 *506:7 6.904e-05

*RES
1 *506:2 *643:A 8.76079178
2 *506:3 *506:2 0.799802
3 *506:7 *506:3 8.76079178
4 *506:6 *506:7 4.24792
5 *506:5 *506:6 8.76079178
6 *506:5 *973:Y 8.76079178
7 *506:4 *506:5 1.02184
*END

*D_NET *507 0.00399881

*CONN
*I *1006:Y O *C 253.94 393.09 *L 0 *D OA21X1
*I *805:A I *C 293.7 393.205 *L 0.000801 *D INVX2

*CAP
1 *1006:Y 2.26568e-05
2 *805:A 2.26568e-05
3 *507:4 1.78744e-05
4 *507:5 0.00195886
5 *507:6 1.78744e-05
6 *507:7 0.00195886

*RES
1 *507:6 *805:A 8.75984
2 *507:3 *507:6 1.02073
3 *507:7 *507:6 8.75984
4 *507:5 *507:7 140.53479
5 *507:4 *507:5 8.75984
6 *507:4 *1006:Y 8.75984
7 *507:2 *507:4 1.01859
*END

*D_NET *508 0.000332941

*CONN
*I *972:Y O *C 769.005 582.825 *L 0 *D AOI22XL
*I *624:A I *C 770.9 583.205 *L 0.00021 *D BUFX2

*CAP
1 *972:Y 2.26693e-05
2 *624:A 2.26693e-05
3 *508:2 1.99504e-05
4 *508:3 9.077e-05
5 *508:4 1.99504e-05
6 *508:5 3.30808e-05
7 *508:6 9.077e-05
8 *508:7 3.30808e-05

*RES
1 *508:7 *624:A 8.76079178
2 *508:5 *508:7 1.46913
3 *508:6 *508:5 8.76079178
4 *508:3 *508:6 8.30882
5 *508:4 *972:Y 8.76079178
6 *508:2 *508:3 8.76079178
7 *508:2 *508:4 0.73724
*END

*D_NET *509 0.00032364

*CONN
*I *1017:Y O *C 250.72 703.235 *L 0 *D NOR2BX1
*I *909:A I *C 249.5 701.005 *L 0.0012 *D INVX3

*CAP
1 *1017:Y 5.53098e-05
2 *909:A 2.26699e-05
3 *509:2 8.875e-05
4 *509:3 6.81602e-05
5 *509:4 8.875e-05

*RES
1 *509:3 *1017:Y 2.97008
2 *509:4 *509:3 8.76079178
3 *509:2 *509:4 6.27476
4 *909:A *509:2 8.76079178
*END

*D_NET *510 0.000174601

*CONN
*I *971:Y O *C 826.205 247.665 *L 0 *D AOI22XL
*I *671:A I *C 826.7 248.235 *L 0.000801 *D INVX2

*CAP
1 *971:Y 2.26703e-05
2 *671:A 2.26703e-05
3 *510:2 2.37801e-05
4 *510:3 5.569e-05
5 *510:4 4.979e-05

*RES
1 *510:4 *671:A 8.76079178
2 *510:3 *510:4 3.34371
3 *510:2 *510:3 1.60201
4 *971:Y *510:2 8.76079178
*END

*D_NET *511 0.000246779

*CONN
*I *970:Y O *C 1012.805 335.635 *L 0 *D AOI22XL
*I *632:A I *C 1013.9 335.255 *L 0.00021 *D BUFX2

*CAP
1 *970:Y 2.26701e-05
2 *632:A 2.26701e-05
3 *511:2 4.979e-05
4 *511:3 4.93699e-05
5 *511:4 4.93699e-05
6 *511:5 1.04997e-05
7 *511:6 4.24098e-05

*RES
1 *511:5 *632:A 8.76079178
2 *511:5 *511:6 0.123921
3 *511:3 *511:6 3.23904
4 *511:3 *511:4 0.672539
5 *511:2 *511:4 3.23904
6 *970:Y *511:2 8.76079178
*END

*D_NET *512 0.00024682

*CONN
*I *969:Y O *C 892.605 708.415 *L 0 *D AOI22XL
*I *634:A I *C 893.7 708.035 *L 0.00021 *D BUFX2

*CAP
1 *969:Y 2.26701e-05
2 *634:A 2.26701e-05
3 *512:2 4.979e-05
4 *512:3 4.93699e-05
5 *512:4 4.93699e-05
6 *512:5 1.05202e-05
7 *512:6 4.24303e-05

*RES
1 *512:5 *634:A 8.76079178
2 *512:5 *512:6 0.124455
3 *512:3 *512:6 3.23904
4 *512:3 *512:4 0.672539
5 *512:2 *512:4 3.23904
6 *969:Y *512:2 8.76079178
*END

*D_NET *513 1.968e-05

*CONN
*I *995:Y O *C 249.94 641.445 *L 0 *D AND2X1
*I *774:A I *C 250.1 641.535 *L 0.000801 *D INVX2

*CAP
1 *995:Y 9.84e-06
2 *774:A 9.84e-06

*RES
1 *995:Y *774:A 0.594022
*END

*D_NET *514 0.000194081

*CONN
*I *968:Y O *C 893.605 247.665 *L 0 *D AOI22XL
*I *677:A I *C 893.5 249.565 *L 0.000801 *D INVX2

*CAP
1 *968:Y 2.26705e-05
2 *677:A 2.26705e-05
3 *514:2 3.521e-05
4 *514:3 3.9890188e-05
5 *514:4 3.91598e-05
6 *514:5 3.44802e-05

*RES
1 *514:5 *677:A 8.76079178
2 *514:4 *514:5 2.0747
3 *514:3 *514:4 1.1102
4 *514:2 *514:3 3.28089
5 *968:Y *514:2 8.76079178
*END

*D_NET *515 0.00438258

*CONN
*I *1009:Y O *C 250.34 458.275 *L 0 *D AND2X1
*I *862:A I *C 292.5 460.275 *L 0.000395 *D INVX1

*CAP
1 *1009:Y 8.90693e-05
2 *862:A 1.9669e-05
3 *515:2 1.79468e-05
4 *515:3 1.79468e-05
5 *515:4 0.00010191
6 *515:5 0.00198004
7 *515:6 7.17268e-05
8 *515:7 0.00198004
9 *515:8 3.25097e-05
10 *515:9 7.17268e-05

*RES
1 *515:8 *862:A 1.1994
2 *515:9 *515:8 8.76033
3 *515:6 *515:9 4.70914
4 *515:7 *515:6 8.76033
5 *515:5 *515:7 141.373383
6 *515:2 *515:5 8.76033
7 *515:3 *515:2 0.675199
8 *515:4 *515:3 8.76033
9 *1009:Y *515:4 4.83426
*END

*D_NET *516 0.000185521

*CONN
*I *967:Y O *C 1080.405 890.625 *L 0 *D AOI22XL
*I *751:A I *C 1080.9 891.195 *L 0.000801 *D INVX2

*CAP
1 *967:Y 2.26706e-05
2 *751:A 2.26706e-05
3 *516:4 1.78907e-05
4 *516:5 5.22e-05
5 *516:6 1.78907e-05
6 *516:7 5.22e-05

*RES
1 *516:6 *751:A 8.76079178
2 *516:3 *516:6 1.02184
3 *516:7 *516:6 8.76079178
4 *516:5 *516:7 3.01406
5 *516:4 *516:5 8.76079178
6 *516:4 *967:Y 8.76079178
7 *516:2 *516:4 1.02184
*END

*D_NET *517 0.000216021

*CONN
*I *996:Y O *C 1134.9399 330.25 *L 0 *D AOI21XL
*I *837:A I *C 1134.7 331.645 *L 0.0012 *D INVX3

*CAP
1 *996:Y 2.26701e-05
2 *837:A 2.26701e-05
3 *517:2 5.938e-05
4 *517:3 5.47001e-05
5 *517:4 2.59601e-05
6 *517:5 3.064e-05

*RES
1 *517:4 *996:Y 8.76079178
2 *517:3 *837:A 8.76079178
3 *517:4 *517:5 1.34521
4 *517:2 *517:3 3.36296
5 *517:2 *517:5 1.07973
*END

*D_NET *518 0.000260388

*CONN
*I *966:Y O *C 1203.8051 1019.635 *L 0 *D AOI22XL
*I *644:A I *C 1204.9 1019.255 *L 0.00021 *D BUFX2

*CAP
1 *966:Y 2.26695e-05
2 *644:A 2.26695e-05
3 *518:4 1.78902e-05
4 *518:5 8.808e-05
5 *518:6 1.04994e-05
6 *518:7 1.04994e-05
7 *518:8 8.808e-05

*RES
1 *518:6 *644:A 8.76079178
2 *518:3 *518:6 0.838034
3 *518:6 *518:7 0.123921
4 *518:8 *518:7 8.76079178
5 *518:5 *518:8 4.95588
6 *518:4 *518:5 8.76079178
7 *518:4 *966:Y 8.76079178
8 *518:2 *518:4 1.02184
*END

*D_NET *519 0.00020468

*CONN
*I *965:Y O *C 1074.205 766.555 *L 0 *D AOI22XL
*I *683:A I *C 1074.1 764.655 *L 0.000801 *D INVX2

*CAP
1 *965:Y 2.26697e-05
2 *683:A 2.26697e-05
3 *519:2 4.36700928e-05
4 *519:3 3.89902e-05
5 *519:4 3.60003e-05
6 *519:5 4.06801e-05

*RES
1 *519:4 *683:A 8.76079178
2 *519:4 *519:5 2.03446
3 *519:3 *965:Y 8.76079178
4 *519:2 *519:5 1.07973
5 *519:2 *519:3 3.44558
*END

